title                                   
   1.00000000000000     
     2.7444886450543704   -4.7545205848120604   -0.0004199212993141
     5.4905839046753977    0.0009277828484862   -0.0002976025132156
    -0.0009494388979524    0.0009993465835422   17.5237476745073799
   Ir   Ru
    20    12
Direct
  0.3333897399577436  0.8337460962990459  0.0608684596963792
  0.3331259636337647  0.8337750292262679  0.3125009810806743
  0.3326523590135576  0.8340836681576936  0.5645958663687254
  0.8334420178756330  0.8337488167525932  0.5648318165059232
  0.8336013553675544  0.3330078617266258  0.3115464968858470
  0.8339139642278779  0.3324720398062211  0.5643526197652883
  0.8334578800458364  0.3325138016362220  0.8128622736119843
  0.1661893200530584  0.1670219882718216  0.1858261724342228
  0.6667718147346980  0.1663613776305699  0.4368995141485456
  0.1656503622552454  0.6670176958810993  0.1862986859806933
  0.1658308596474529  0.6668471873714785  0.4375512378018631
  0.1661035977852963  0.6673022158251851  0.9366014082226216
  0.3346885611797829  0.3322944312694390  0.0608602247519317
  0.3335777395565714  0.3330638091184210  0.3119543690494471
  0.3332923993779098  0.3330089734872339  0.5649531839032519
  0.3337828671339841  0.3330363721283304  0.8123460751760320
  0.6675088079961554  0.6665744821804992  0.1857310412301237
  0.6670481883987059  0.6666864718542702  0.4371473552834795
  0.6663673395846748  0.6671873385341682  0.6898786095295537
  0.6669188350532747  0.6666374862168080  0.9371438391329694
  0.3324268163331997  0.8339827659727089  0.8120055544861453
  0.8327964686131909  0.8348084934111064  0.0613271936565371
  0.8330945563258728  0.8338139302912446  0.3112579962885884
  0.8336890591669650  0.8341379559318596  0.8126298825773106
  0.8333373950377468  0.3322176029384850  0.0612674681739078
  0.1664054249347414  0.1669261825919729  0.4377854299699754
  0.1668765300463297  0.1661613595972838  0.6895361199237841
  0.1659407912262250  0.1663102662990169  0.9368434668296167
  0.6672593676463940  0.1659582457193399  0.1859294347023047
  0.6669189822735847  0.1660098197712623  0.6894877527827519
  0.6676448423630995  0.1660738334286270  0.9375809949373347
  0.1662957931538732  0.6672124006730995  0.6895984751121861
 
  0.00000000E+00  0.00000000E+00  0.00000000E+00
  0.00000000E+00  0.00000000E+00  0.00000000E+00
  0.00000000E+00  0.00000000E+00  0.00000000E+00
  0.00000000E+00  0.00000000E+00  0.00000000E+00
  0.00000000E+00  0.00000000E+00  0.00000000E+00
  0.00000000E+00  0.00000000E+00  0.00000000E+00
  0.00000000E+00  0.00000000E+00  0.00000000E+00
  0.00000000E+00  0.00000000E+00  0.00000000E+00
  0.00000000E+00  0.00000000E+00  0.00000000E+00
  0.00000000E+00  0.00000000E+00  0.00000000E+00
  0.00000000E+00  0.00000000E+00  0.00000000E+00
  0.00000000E+00  0.00000000E+00  0.00000000E+00
  0.00000000E+00  0.00000000E+00  0.00000000E+00
  0.00000000E+00  0.00000000E+00  0.00000000E+00
  0.00000000E+00  0.00000000E+00  0.00000000E+00
  0.00000000E+00  0.00000000E+00  0.00000000E+00
  0.00000000E+00  0.00000000E+00  0.00000000E+00
  0.00000000E+00  0.00000000E+00  0.00000000E+00
  0.00000000E+00  0.00000000E+00  0.00000000E+00
  0.00000000E+00  0.00000000E+00  0.00000000E+00
  0.00000000E+00  0.00000000E+00  0.00000000E+00
  0.00000000E+00  0.00000000E+00  0.00000000E+00
  0.00000000E+00  0.00000000E+00  0.00000000E+00
  0.00000000E+00  0.00000000E+00  0.00000000E+00
  0.00000000E+00  0.00000000E+00  0.00000000E+00
  0.00000000E+00  0.00000000E+00  0.00000000E+00
  0.00000000E+00  0.00000000E+00  0.00000000E+00
  0.00000000E+00  0.00000000E+00  0.00000000E+00
  0.00000000E+00  0.00000000E+00  0.00000000E+00
  0.00000000E+00  0.00000000E+00  0.00000000E+00
  0.00000000E+00  0.00000000E+00  0.00000000E+00
  0.00000000E+00  0.00000000E+00  0.00000000E+00
