title                                   
   1.00000000000000     
     0.0121200000000000   -5.7165800000000004   -1.8944500000000000
    -5.7154299999999996   -1.9112400000000000   -0.0115400000000000
    -1.8885300000000000    1.8888000000000000   -7.6283799999999999
   Ru
    20
Direct
  0.1930039999527935  0.3405170000221958  0.9439189999854705
  0.8024040000734587  0.3997569999188286  0.8031290000343176
  0.1845340000419782  0.1059420000603879  0.6838239999763758
  0.9977539999736749  0.2524370000721348  0.2475889999933187
  0.5687319999319840  0.2980559999590895  0.1080019999645145
  0.9983279999580930  0.0017439999264468  0.9971280000105196
  0.5851979999577352  0.0474289999922775  0.8616230000760510
  0.0046540000263278  0.7507119999278657  0.7479240000066838
  0.7838260000680890  0.1541180000277436  0.5547060000223780
  0.4020720000578279  0.1979334999698565  0.3994394999856823
  0.2005179999736768  0.8504540000721406  0.4509179999933224
  0.8008139999633386  0.9012945000274186  0.2984064999697367
  0.3989019999786905  0.9515610000290522  0.1470070000707935
  0.2027480000157809  0.5998714999226422  0.1998055000224142
  0.7896260000840059  0.6261704999240507  0.0525485000185810
  0.3958379999055168  0.7034740000575610  0.8968479999840540
  0.4004360000261116  0.4504579999673624  0.6505160000460037
  0.5992700000946272  0.7994999999161081  0.6009299999897380
  0.9989440000575414  0.4895995000225213  0.4935015000381142
  0.6016759999736010  0.5454780000853034  0.3508360000064243
 
  0.00000000E+00  0.00000000E+00  0.00000000E+00
  0.00000000E+00  0.00000000E+00  0.00000000E+00
  0.00000000E+00  0.00000000E+00  0.00000000E+00
  0.00000000E+00  0.00000000E+00  0.00000000E+00
  0.00000000E+00  0.00000000E+00  0.00000000E+00
  0.00000000E+00  0.00000000E+00  0.00000000E+00
  0.00000000E+00  0.00000000E+00  0.00000000E+00
  0.00000000E+00  0.00000000E+00  0.00000000E+00
  0.00000000E+00  0.00000000E+00  0.00000000E+00
  0.00000000E+00  0.00000000E+00  0.00000000E+00
  0.00000000E+00  0.00000000E+00  0.00000000E+00
  0.00000000E+00  0.00000000E+00  0.00000000E+00
  0.00000000E+00  0.00000000E+00  0.00000000E+00
  0.00000000E+00  0.00000000E+00  0.00000000E+00
  0.00000000E+00  0.00000000E+00  0.00000000E+00
  0.00000000E+00  0.00000000E+00  0.00000000E+00
  0.00000000E+00  0.00000000E+00  0.00000000E+00
  0.00000000E+00  0.00000000E+00  0.00000000E+00
  0.00000000E+00  0.00000000E+00  0.00000000E+00
  0.00000000E+00  0.00000000E+00  0.00000000E+00
