title
1.
0.012120000 -5.716580000 -1.894450000
-5.715430000 -1.911240000 -0.011540000
-1.888530000 1.888800000 -7.628380000
20
Cartesian
-3.726481218 0.028741690 -7.570138815    Ru
-3.791791224 -3.834088172 -7.651300655    Ru
-1.894689672 0.034222809 -5.567282332    Ru
-1.910392479 -0.001982150 -1.887361164    Ru
-1.900590189 -3.616864348 -1.904754200    Ru
-0.004564116 0.000800286 0.025056102    Ru
-1.891185414 -1.808545862 -7.681963343    Ru
-5.703062391 -0.048716915 -5.722928470    Ru
-1.918929592 -3.727631829 -5.718205844    Ru
-1.880755430 -1.922313849 -3.811065746    Ru
-5.709852198 -1.920004973 -3.829459417    Ru
-5.705129386 -5.736877199 -3.803861197    Ru
-5.711372724 -3.821349819 -1.888106167    Ru
-3.803404942 -1.928130939 -1.915210746    Ru
-3.668502812 -5.611468699 -1.903992910    Ru
-5.709583201 -1.913380739 -7.599510735    Ru
-3.798226864 -1.921363156 -5.726187510    Ru
-5.697097465 -3.818774693 -5.728635675    Ru
-3.730276857 0.002420193 -3.768266412    Ru
-3.772913324 -3.819409324 -3.822450240    Ru
