title                                   
   1.00000000000000     
     5.4654201478363165   -0.0000261125703010    0.0000000000000000
    -2.7327331723152413    4.7331802189041214    0.0000000000000000
     0.0000000000000000    0.0000000000000000    4.3238594480429873
   Ir   Ru
     2     6
Direct
  0.3333296223927249  0.6666703775695595  0.2500000000000000
  0.6666703776072751  0.3333296224304405  0.7500000000000000
  0.8341145226009488  0.6682406609829883  0.2500000000000000
  0.8341141333215631  0.1658858666554224  0.2500000000000000
  0.3317593389645026  0.1658854773612148  0.2500000000000000
  0.1658854773990512  0.3317593390170117  0.7500000000000000
  0.6682406610354974  0.8341145226387852  0.7500000000000000
  0.1658858666784369  0.8341141333445776  0.7500000000000000
 
  0.00000000E+00  0.00000000E+00  0.00000000E+00
  0.00000000E+00  0.00000000E+00  0.00000000E+00
  0.00000000E+00  0.00000000E+00  0.00000000E+00
  0.00000000E+00  0.00000000E+00  0.00000000E+00
  0.00000000E+00  0.00000000E+00  0.00000000E+00
  0.00000000E+00  0.00000000E+00  0.00000000E+00
  0.00000000E+00  0.00000000E+00  0.00000000E+00
  0.00000000E+00  0.00000000E+00  0.00000000E+00
