title                                   
   1.00000000000000     
     5.4654201474510549   -0.0000261127127703   -0.0000000000000000
    -2.7327331722459918    4.7331802184992391    0.0000000000000000
    -0.0000000000000000    0.0000000000000000    4.3238594479941543
   Ir   Ru
     2     6
Direct
  0.3333296223919888  0.6666703775702955  0.2500000000000000
  0.6666703776080112  0.3333296224297045  0.7500000000000000
  0.8341145226213303  0.6682406609943015  0.2500000000000000
  0.8341141333319613  0.1658858666450210  0.2500000000000000
  0.3317593389531900  0.1658854773408332  0.2500000000000000
  0.1658854773786698  0.3317593390056984  0.7500000000000000
  0.6682406610468099  0.8341145226591670  0.7500000000000000
  0.1658858666680387  0.8341141333549791  0.7500000000000000
 
  0.00000000E+00  0.00000000E+00  0.00000000E+00
  0.00000000E+00  0.00000000E+00  0.00000000E+00
  0.00000000E+00  0.00000000E+00  0.00000000E+00
  0.00000000E+00  0.00000000E+00  0.00000000E+00
  0.00000000E+00  0.00000000E+00  0.00000000E+00
  0.00000000E+00  0.00000000E+00  0.00000000E+00
  0.00000000E+00  0.00000000E+00  0.00000000E+00
  0.00000000E+00  0.00000000E+00  0.00000000E+00
