title                                   
   1.00000000000000     
     5.4654201474510549   -0.0000261127127703    0.0000000000000000
    -2.7327331722459918    4.7331802184992391    0.0000000000000000
     0.0000000000000000    0.0000000000000000    4.3238594479941543
   Ir   Ru
     2     6
Direct
  0.3333296223919859  0.6666703775702985  0.2500000000000000
  0.6666703776080141  0.3333296224297015  0.7500000000000000
  0.8341145226213271  0.6682406609943001  0.2500000000000000
  0.8341141333319584  0.1658858666450200  0.2500000000000000
  0.3317593389531908  0.1658854773408365  0.2500000000000000
  0.1658854773786729  0.3317593390056999  0.7500000000000000
  0.6682406610468092  0.8341145226591635  0.7500000000000000
  0.1658858666680416  0.8341141333549800  0.7500000000000000
 
  0.00000000E+00  0.00000000E+00  0.00000000E+00
  0.00000000E+00  0.00000000E+00  0.00000000E+00
  0.00000000E+00  0.00000000E+00  0.00000000E+00
  0.00000000E+00  0.00000000E+00  0.00000000E+00
  0.00000000E+00  0.00000000E+00  0.00000000E+00
  0.00000000E+00  0.00000000E+00  0.00000000E+00
  0.00000000E+00  0.00000000E+00  0.00000000E+00
  0.00000000E+00  0.00000000E+00  0.00000000E+00
