title
1.
5.643239000 0.000000000 0.000000000
-2.821620000 4.887189000 0.000000000
0.000000000 0.000000000 4.512464000
2 6
Cartesian
-0.000282495 3.258288906 1.128116000    Ir
2.821901495 1.628900094 3.384348000    Ir
2.821337005 3.258288906 1.128116000    Ru
4.232147005 0.814694406 1.128116000    Ru
1.410527505 0.814694406 1.128116000    Ru
0.000281995 1.628900094 3.384348000    Ru
1.411091495 4.072494594 3.384348000    Ru
-1.410528005 4.072494594 3.384348000    Ru
