title                                   
   1.00000000000000     
     5.4654201478363165   -0.0000261125703010   -0.0000000000000000
    -2.7327331723152413    4.7331802189041214    0.0000000000000000
    -0.0000000000000000    0.0000000000000000    4.3238594480429873
   Ir   Ru
     2     6
Direct
  0.3333296223927259  0.6666703775695584  0.2500000000000000
  0.6666703776072741  0.3333296224304416  0.7500000000000000
  0.8341145226009493  0.6682406609829886  0.2500000000000000
  0.8341141333215603  0.1658858666554220  0.2500000000000000
  0.3317593389645028  0.1658854773612143  0.2500000000000000
  0.1658854773990508  0.3317593390170113  0.7500000000000000
  0.6682406610354973  0.8341145226387858  0.7500000000000000
  0.1658858666784397  0.8341141333445782  0.7500000000000000
 
  0.00000000E+00  0.00000000E+00  0.00000000E+00
  0.00000000E+00  0.00000000E+00  0.00000000E+00
  0.00000000E+00  0.00000000E+00  0.00000000E+00
  0.00000000E+00  0.00000000E+00  0.00000000E+00
  0.00000000E+00  0.00000000E+00  0.00000000E+00
  0.00000000E+00  0.00000000E+00  0.00000000E+00
  0.00000000E+00  0.00000000E+00  0.00000000E+00
  0.00000000E+00  0.00000000E+00  0.00000000E+00
