title                                   
   1.00000000000000     
     3.8579910223208818    0.0000000000000000   -0.0000000000000000
     0.0000000000000000    3.8579910223208818   -0.0000000000000000
     0.0000000000000000    0.0000000000000000    3.8579910223208818
   Ir   Ru
     3     1
Direct
  0.0000000000000000  0.5000000000000000  0.5000000000000000
  0.5000000000000000  0.0000000000000000  0.5000000000000000
  0.5000000000000000  0.5000000000000000  0.0000000000000000
  0.0000000000000000  0.0000000000000000  0.0000000000000000
 
  0.00000000E+00  0.00000000E+00  0.00000000E+00
  0.00000000E+00  0.00000000E+00  0.00000000E+00
  0.00000000E+00  0.00000000E+00  0.00000000E+00
  0.00000000E+00  0.00000000E+00  0.00000000E+00
