title                                   
   1.00000000000000     
     5.5020400000000000   -9.5295600000000000    0.0000000000000000
   -11.0038599999999995    0.0001200000000000    0.0000000000000000
     0.0000000000000000    0.0000000000000000  -13.3692299999999999
   Ir
    96
Direct
  0.1666549999580269  0.3333449999335727  0.5833333333333357
  0.3333450000419731  0.1666549999755489  0.4166666666666643
  0.1666549999580269  0.0833449999335727  0.5833333333333357
  0.4166549999580269  0.0833450000244511  0.5833333333333357
  0.4166549999580269  0.3333449999335727  0.5833333333333357
  0.3333450000419731  0.4166549999755489  0.4166666666666643
  0.0833450000419731  0.1666549999755489  0.4166666666666643
  0.0833450000419731  0.4166549999755489  0.4166666666666643
  0.1666549999580269  0.8333449999335727  0.5833333333333357
  0.3333450000419731  0.6666549999755489  0.4166666666666643
  0.1666549999580269  0.5833450000244511  0.5833333333333357
  0.4166549999580269  0.5833450000244511  0.5833333333333357
  0.4166549999580269  0.8333449999335727  0.5833333333333357
  0.3333450000419731  0.9166549999755489  0.4166666666666643
  0.0833450000419731  0.6666549999755489  0.4166666666666643
  0.0833450000419731  0.9166549999755489  0.4166666666666643
  0.6666549999580269  0.3333449999335727  0.5833333333333357
  0.8333450000419731  0.1666549999755489  0.4166666666666643
  0.6666549999580269  0.0833449999335727  0.5833333333333357
  0.9166549999580269  0.0833450000244511  0.5833333333333357
  0.9166549999580269  0.3333449999335727  0.5833333333333357
  0.8333450000419731  0.4166549999755489  0.4166666666666643
  0.5833450000419731  0.1666549999755489  0.4166666666666643
  0.5833450000419731  0.4166549999755489  0.4166666666666643
  0.6666549999580269  0.8333449999335727  0.5833333333333357
  0.8333450000419731  0.6666549999755489  0.4166666666666643
  0.6666549999580269  0.5833450000244511  0.5833333333333357
  0.9166549999580269  0.5833450000244511  0.5833333333333357
  0.9166549999580269  0.8333449999335727  0.5833333333333357
  0.8333450000419731  0.9166549999755489  0.4166666666666643
  0.5833450000419731  0.6666549999755489  0.4166666666666643
  0.5833450000419731  0.9166549999755489  0.4166666666666643
  0.1666549999580269  0.3333449999335727  0.2500000000000000
  0.3333450000419731  0.1666549999755489  0.0833333333333357
  0.1666549999580269  0.0833449999335727  0.2500000000000000
  0.4166549999580269  0.0833450000244511  0.2500000000000000
  0.4166549999580269  0.3333449999335727  0.2500000000000000
  0.3333450000419731  0.4166549999755489  0.0833333333333357
  0.0833450000419731  0.1666549999755489  0.0833333333333357
  0.0833450000419731  0.4166549999755489  0.0833333333333357
  0.1666549999580269  0.8333449999335727  0.2500000000000000
  0.3333450000419731  0.6666549999755489  0.0833333333333357
  0.1666549999580269  0.5833450000244511  0.2500000000000000
  0.4166549999580269  0.5833450000244511  0.2500000000000000
  0.4166549999580269  0.8333449999335727  0.2500000000000000
  0.3333450000419731  0.9166549999755489  0.0833333333333357
  0.0833450000419731  0.6666549999755489  0.0833333333333357
  0.0833450000419731  0.9166549999755489  0.0833333333333357
  0.6666549999580269  0.3333449999335727  0.2500000000000000
  0.8333450000419731  0.1666549999755489  0.0833333333333357
  0.6666549999580269  0.0833449999335727  0.2500000000000000
  0.9166549999580269  0.0833450000244511  0.2500000000000000
  0.9166549999580269  0.3333449999335727  0.2500000000000000
  0.8333450000419731  0.4166549999755489  0.0833333333333357
  0.5833450000419731  0.1666549999755489  0.0833333333333357
  0.5833450000419731  0.4166549999755489  0.0833333333333357
  0.6666549999580269  0.8333449999335727  0.2500000000000000
  0.8333450000419731  0.6666549999755489  0.0833333333333357
  0.6666549999580269  0.5833450000244511  0.2500000000000000
  0.9166549999580269  0.5833450000244511  0.2500000000000000
  0.9166549999580269  0.8333449999335727  0.2500000000000000
  0.8333450000419731  0.9166549999755489  0.0833333333333357
  0.5833450000419731  0.6666549999755489  0.0833333333333357
  0.5833450000419731  0.9166549999755489  0.0833333333333357
  0.1666549999580269  0.3333449999335727  0.9166666666666643
  0.3333450000419731  0.1666549999755489  0.7500000000000000
  0.1666549999580269  0.0833449999335727  0.9166666666666643
  0.4166549999580269  0.0833450000244511  0.9166666666666643
  0.4166549999580269  0.3333449999335727  0.9166666666666643
  0.3333450000419731  0.4166549999755489  0.7500000000000000
  0.0833450000419731  0.1666549999755489  0.7500000000000000
  0.0833450000419731  0.4166549999755489  0.7500000000000000
  0.1666549999580269  0.8333449999335727  0.9166666666666643
  0.3333450000419731  0.6666549999755489  0.7500000000000000
  0.1666549999580269  0.5833450000244511  0.9166666666666643
  0.4166549999580269  0.5833450000244511  0.9166666666666643
  0.4166549999580269  0.8333449999335727  0.9166666666666643
  0.3333450000419731  0.9166549999755489  0.7500000000000000
  0.0833450000419731  0.6666549999755489  0.7500000000000000
  0.0833450000419731  0.9166549999755489  0.7500000000000000
  0.6666549999580269  0.3333449999335727  0.9166666666666643
  0.8333450000419731  0.1666549999755489  0.7500000000000000
  0.6666549999580269  0.0833449999335727  0.9166666666666643
  0.9166549999580269  0.0833450000244511  0.9166666666666643
  0.9166549999580269  0.3333449999335727  0.9166666666666643
  0.8333450000419731  0.4166549999755489  0.7500000000000000
  0.5833450000419731  0.1666549999755489  0.7500000000000000
  0.5833450000419731  0.4166549999755489  0.7500000000000000
  0.6681399999790116  0.8318599999895042  0.9145500000374014
  0.8333450000419731  0.6666549999755489  0.7500000000000000
  0.6666549999580269  0.5833450000244511  0.9166666666666643
  0.9166549999580269  0.5833450000244511  0.9166666666666643
  0.9166549999580269  0.8333449999335727  0.9166666666666643
  0.8333450000419731  0.9166549999755489  0.7500000000000000
  0.5833450000419731  0.6666549999755489  0.7500000000000000
  0.5833450000419731  0.9166549999755489  0.7500000000000000
 
  0.00000000E+00  0.00000000E+00  0.00000000E+00
  0.00000000E+00  0.00000000E+00  0.00000000E+00
  0.00000000E+00  0.00000000E+00  0.00000000E+00
  0.00000000E+00  0.00000000E+00  0.00000000E+00
  0.00000000E+00  0.00000000E+00  0.00000000E+00
  0.00000000E+00  0.00000000E+00  0.00000000E+00
  0.00000000E+00  0.00000000E+00  0.00000000E+00
  0.00000000E+00  0.00000000E+00  0.00000000E+00
  0.00000000E+00  0.00000000E+00  0.00000000E+00
  0.00000000E+00  0.00000000E+00  0.00000000E+00
  0.00000000E+00  0.00000000E+00  0.00000000E+00
  0.00000000E+00  0.00000000E+00  0.00000000E+00
  0.00000000E+00  0.00000000E+00  0.00000000E+00
  0.00000000E+00  0.00000000E+00  0.00000000E+00
  0.00000000E+00  0.00000000E+00  0.00000000E+00
  0.00000000E+00  0.00000000E+00  0.00000000E+00
  0.00000000E+00  0.00000000E+00  0.00000000E+00
  0.00000000E+00  0.00000000E+00  0.00000000E+00
  0.00000000E+00  0.00000000E+00  0.00000000E+00
  0.00000000E+00  0.00000000E+00  0.00000000E+00
  0.00000000E+00  0.00000000E+00  0.00000000E+00
  0.00000000E+00  0.00000000E+00  0.00000000E+00
  0.00000000E+00  0.00000000E+00  0.00000000E+00
  0.00000000E+00  0.00000000E+00  0.00000000E+00
  0.00000000E+00  0.00000000E+00  0.00000000E+00
  0.00000000E+00  0.00000000E+00  0.00000000E+00
  0.00000000E+00  0.00000000E+00  0.00000000E+00
  0.00000000E+00  0.00000000E+00  0.00000000E+00
  0.00000000E+00  0.00000000E+00  0.00000000E+00
  0.00000000E+00  0.00000000E+00  0.00000000E+00
  0.00000000E+00  0.00000000E+00  0.00000000E+00
  0.00000000E+00  0.00000000E+00  0.00000000E+00
  0.00000000E+00  0.00000000E+00  0.00000000E+00
  0.00000000E+00  0.00000000E+00  0.00000000E+00
  0.00000000E+00  0.00000000E+00  0.00000000E+00
  0.00000000E+00  0.00000000E+00  0.00000000E+00
  0.00000000E+00  0.00000000E+00  0.00000000E+00
  0.00000000E+00  0.00000000E+00  0.00000000E+00
  0.00000000E+00  0.00000000E+00  0.00000000E+00
  0.00000000E+00  0.00000000E+00  0.00000000E+00
  0.00000000E+00  0.00000000E+00  0.00000000E+00
  0.00000000E+00  0.00000000E+00  0.00000000E+00
  0.00000000E+00  0.00000000E+00  0.00000000E+00
  0.00000000E+00  0.00000000E+00  0.00000000E+00
  0.00000000E+00  0.00000000E+00  0.00000000E+00
  0.00000000E+00  0.00000000E+00  0.00000000E+00
  0.00000000E+00  0.00000000E+00  0.00000000E+00
  0.00000000E+00  0.00000000E+00  0.00000000E+00
  0.00000000E+00  0.00000000E+00  0.00000000E+00
  0.00000000E+00  0.00000000E+00  0.00000000E+00
  0.00000000E+00  0.00000000E+00  0.00000000E+00
  0.00000000E+00  0.00000000E+00  0.00000000E+00
  0.00000000E+00  0.00000000E+00  0.00000000E+00
  0.00000000E+00  0.00000000E+00  0.00000000E+00
  0.00000000E+00  0.00000000E+00  0.00000000E+00
  0.00000000E+00  0.00000000E+00  0.00000000E+00
  0.00000000E+00  0.00000000E+00  0.00000000E+00
  0.00000000E+00  0.00000000E+00  0.00000000E+00
  0.00000000E+00  0.00000000E+00  0.00000000E+00
  0.00000000E+00  0.00000000E+00  0.00000000E+00
  0.00000000E+00  0.00000000E+00  0.00000000E+00
  0.00000000E+00  0.00000000E+00  0.00000000E+00
  0.00000000E+00  0.00000000E+00  0.00000000E+00
  0.00000000E+00  0.00000000E+00  0.00000000E+00
  0.00000000E+00  0.00000000E+00  0.00000000E+00
  0.00000000E+00  0.00000000E+00  0.00000000E+00
  0.00000000E+00  0.00000000E+00  0.00000000E+00
  0.00000000E+00  0.00000000E+00  0.00000000E+00
  0.00000000E+00  0.00000000E+00  0.00000000E+00
  0.00000000E+00  0.00000000E+00  0.00000000E+00
  0.00000000E+00  0.00000000E+00  0.00000000E+00
  0.00000000E+00  0.00000000E+00  0.00000000E+00
  0.00000000E+00  0.00000000E+00  0.00000000E+00
  0.00000000E+00  0.00000000E+00  0.00000000E+00
  0.00000000E+00  0.00000000E+00  0.00000000E+00
  0.00000000E+00  0.00000000E+00  0.00000000E+00
  0.00000000E+00  0.00000000E+00  0.00000000E+00
  0.00000000E+00  0.00000000E+00  0.00000000E+00
  0.00000000E+00  0.00000000E+00  0.00000000E+00
  0.00000000E+00  0.00000000E+00  0.00000000E+00
  0.00000000E+00  0.00000000E+00  0.00000000E+00
  0.00000000E+00  0.00000000E+00  0.00000000E+00
  0.00000000E+00  0.00000000E+00  0.00000000E+00
  0.00000000E+00  0.00000000E+00  0.00000000E+00
  0.00000000E+00  0.00000000E+00  0.00000000E+00
  0.00000000E+00  0.00000000E+00  0.00000000E+00
  0.00000000E+00  0.00000000E+00  0.00000000E+00
  0.00000000E+00  0.00000000E+00  0.00000000E+00
  0.00000000E+00  0.00000000E+00  0.00000000E+00
  0.00000000E+00  0.00000000E+00  0.00000000E+00
  0.00000000E+00  0.00000000E+00  0.00000000E+00
  0.00000000E+00  0.00000000E+00  0.00000000E+00
  0.00000000E+00  0.00000000E+00  0.00000000E+00
  0.00000000E+00  0.00000000E+00  0.00000000E+00
  0.00000000E+00  0.00000000E+00  0.00000000E+00
  0.00000000E+00  0.00000000E+00  0.00000000E+00
