title
1.
5.502040000 -9.529560000 0.000000000
-11.003860000 0.000120000 0.000000000
0.000000000 0.000000000 -13.369230000
96
Cartesian
-2.751139235 -1.588108820 -7.798717500    Ir
0.000229236 -3.176611180 -5.570512500    Ir
-0.000174235 -1.588138820 -7.798717500    Ir
1.375335764 -3.970528820 -7.798717500    Ir
-1.375629235 -3.970498820 -7.798717500    Ir
-2.750735764 -3.176581180 -5.570512500    Ir
-1.375280764 -0.794221180 -5.570512500    Ir
-4.126245764 -0.794191180 -5.570512500    Ir
-8.253069235 -1.588048820 -7.798717500    Ir
-5.501700764 -3.176551180 -5.570512500    Ir
-5.502104236 -1.588078820 -7.798717500    Ir
-4.126594236 -3.970468820 -7.798717500    Ir
-6.877559235 -3.970438820 -7.798717500    Ir
-8.252665764 -3.176521180 -5.570512500    Ir
-6.877210764 -0.794161180 -5.570512500    Ir
-9.628175764 -0.794131180 -5.570512500    Ir
-0.000119235 -6.352888820 -7.798717500    Ir
2.751249236 -7.941391180 -5.570512500    Ir
2.750845765 -6.352918820 -7.798717500    Ir
4.126355764 -8.735308820 -7.798717500    Ir
1.375390765 -8.735278820 -7.798717500    Ir
0.000284236 -7.941361180 -5.570512500    Ir
1.375739236 -5.559001180 -5.570512500    Ir
-1.375225764 -5.558971180 -5.570512500    Ir
-5.502049235 -6.352828820 -7.798717500    Ir
-2.750680764 -7.941331180 -5.570512500    Ir
-2.751084236 -6.352858820 -7.798717500    Ir
-1.375574236 -8.735248820 -7.798717500    Ir
-4.126539235 -8.735218820 -7.798717500    Ir
-5.501645764 -7.941301180 -5.570512500    Ir
-4.126190764 -5.558941180 -5.570512500    Ir
-6.877155764 -5.558911180 -5.570512500    Ir
-2.751139235 -1.588108820 -3.342307500    Ir
0.000229236 -3.176611180 -1.114102500    Ir
-0.000174235 -1.588138820 -3.342307500    Ir
1.375335764 -3.970528820 -3.342307500    Ir
-1.375629235 -3.970498820 -3.342307500    Ir
-2.750735764 -3.176581180 -1.114102500    Ir
-1.375280764 -0.794221180 -1.114102500    Ir
-4.126245764 -0.794191180 -1.114102500    Ir
-8.253069235 -1.588048820 -3.342307500    Ir
-5.501700764 -3.176551180 -1.114102500    Ir
-5.502104236 -1.588078820 -3.342307500    Ir
-4.126594236 -3.970468820 -3.342307500    Ir
-6.877559235 -3.970438820 -3.342307500    Ir
-8.252665764 -3.176521180 -1.114102500    Ir
-6.877210764 -0.794161180 -1.114102500    Ir
-9.628175764 -0.794131180 -1.114102500    Ir
-0.000119235 -6.352888820 -3.342307500    Ir
2.751249236 -7.941391180 -1.114102500    Ir
2.750845765 -6.352918820 -3.342307500    Ir
4.126355764 -8.735308820 -3.342307500    Ir
1.375390765 -8.735278820 -3.342307500    Ir
0.000284236 -7.941361180 -1.114102500    Ir
1.375739236 -5.559001180 -1.114102500    Ir
-1.375225764 -5.558971180 -1.114102500    Ir
-5.502049235 -6.352828820 -3.342307500    Ir
-2.750680764 -7.941331180 -1.114102500    Ir
-2.751084236 -6.352858820 -3.342307500    Ir
-1.375574236 -8.735248820 -3.342307500    Ir
-4.126539235 -8.735218820 -3.342307500    Ir
-5.501645764 -7.941301180 -1.114102500    Ir
-4.126190764 -5.558941180 -1.114102500    Ir
-6.877155764 -5.558911180 -1.114102500    Ir
-2.751139235 -1.588108820 -12.255127500    Ir
0.000229236 -3.176611180 -10.026922500    Ir
-0.000174235 -1.588138820 -12.255127500    Ir
1.375335764 -3.970528820 -12.255127500    Ir
-1.375629235 -3.970498820 -12.255127500    Ir
-2.750735764 -3.176581180 -10.026922500    Ir
-1.375280764 -0.794221180 -10.026922500    Ir
-4.126245764 -0.794191180 -10.026922500    Ir
-8.253069235 -1.588048820 -12.255127500    Ir
-5.501700764 -3.176551180 -10.026922500    Ir
-5.502104236 -1.588078820 -12.255127500    Ir
-4.126594236 -3.970468820 -12.255127500    Ir
-6.877559235 -3.970438820 -12.255127500    Ir
-8.252665764 -3.176521180 -10.026922500    Ir
-6.877210764 -0.794161180 -10.026922500    Ir
-9.628175764 -0.794131180 -10.026922500    Ir
-0.000119235 -6.352888820 -12.255127500    Ir
2.751249236 -7.941391180 -10.026922500    Ir
2.750845765 -6.352918820 -12.255127500    Ir
4.126355764 -8.735308820 -12.255127500    Ir
1.375390765 -8.735278820 -12.255127500    Ir
0.000284236 -7.941361180 -10.026922500    Ir
1.375739236 -5.559001180 -10.026922500    Ir
-1.375225764 -5.558971180 -10.026922500    Ir
-5.477537974 -6.366980395 -12.226829297    Ir
-2.750680764 -7.941331180 -10.026922500    Ir
-2.751084236 -6.352858820 -12.255127500    Ir
-1.375574236 -8.735248820 -12.255127500    Ir
-4.126539235 -8.735218820 -12.255127500    Ir
-5.501645764 -7.941301180 -10.026922500    Ir
-4.126190764 -5.558941180 -10.026922500    Ir
-6.877155764 -5.558911180 -10.026922500    Ir
