title
1.
-4.120950000 2.379650000 -0.004720000
1.376020000 7.130870000 -4.471120000
-5.486490000 -4.773140000 -13.397840000
40
Cartesian
-5.288274100 -0.003398728 -13.497227816    Ir
-5.349017873 -1.623729089 -10.993397022    Ir
-6.861962221 2.362305889 -13.402352868    Ir
-6.863071145 0.779029498 -11.167951354    Ir
-4.114712221 2.361785889 -13.400532868    Ir
-4.115821145 0.778509498 -11.166131354    Ir
-5.488412221 4.740915889 -13.403432868    Ir
-5.489521145 3.157639498 -11.169031354    Ir
-4.117182221 -2.390474111 -8.930492868    Ir
-2.742271145 3.157119498 -11.167211354    Ir
-5.490882221 -0.011344111 -8.933392868    Ir
-4.115984881 5.536225712 -11.170111344    Ir
-2.743632784 0.005977414 -8.931587793    Ir
-2.744741145 -1.595140502 -6.697171354    Ir
-4.117332221 2.367265889 -8.934472868    Ir
-4.118441145 0.783989498 -6.700071354    Ir
-5.491032221 4.746395889 -8.937372868    Ir
-5.492141145 3.163119498 -6.702971354    Ir
-2.743782221 4.745875889 -8.935552868    Ir
-2.744891145 3.162599498 -6.701151354    Ir
-4.117482221 7.125005889 -8.938452868    Ir
-4.118591145 5.541729498 -6.704051354    Ir
-2.746252221 -0.006384111 -4.465512868    Ir
-1.371341145 5.541209498 -6.702231354    Ir
-4.119952221 2.372745889 -4.468412868    Ir
-2.745041145 7.920339498 -6.705131354    Ir
-1.372702221 2.372225889 -4.466592868    Ir
-1.373811145 0.788949498 -2.232191354    Ir
-2.746402221 4.751355889 -4.469492868    Ir
-2.747511145 3.168079498 -2.235091354    Ir
0.000847779 4.750835889 -4.467672868    Ir
-0.000261145 3.167559498 -2.233271354    Ir
-1.372852221 7.129965889 -4.470572868    Ir
-6.860451145 0.773549498 -15.634011354    Ir
-4.112092221 2.356305889 -17.866592868    Ir
-4.113201145 0.773029498 -15.632191354    Ir
-6.861812221 -2.395434111 -13.398372868    Ir
-5.486901145 3.152159498 -15.635091354    Ir
-8.235512221 -0.016304111 -13.401272868    Ir
-8.236621145 -1.599580502 -11.166871354    Ir
