title                                   
   1.00000000000000     
     5.4942000000000002    9.5144400000000005   -0.0043200000000000
    -5.4947999999999997    9.5165199999999999   -0.0116000000000000
    -0.0078600000000000    0.0164400000000000   13.3981800000000000
   Ir
    96
Direct
  0.2497749999741004  0.0000700000468825  0.0031600000149581
  0.1664525000430643  0.9167199999884161  0.1668466666965287
  0.2497774999985936  0.2500724999803907  0.0001766666666470
  0.1664525000430643  0.1667199999884161  0.1668466666965287
  0.4997774999985936  0.0000724999803907  0.0001766666666470
  0.4164525000430643  0.9167199999884161  0.1668466666965287
  0.2497774999985936  0.5000724999803907  0.0001766666666470
  0.1664525000430643  0.4167199999884161  0.1668466666965287
  0.4997774999985936  0.2500724999803907  0.0001766666666470
  0.4164525000430643  0.1667199999884161  0.1668466666965287
  0.7497774999985936  0.0000724999803907  0.0001766666666470
  0.6664525000430643  0.9167199999884161  0.1668466666965287
  0.2497774999985936  0.7500724999803907  0.0001766666666470
  0.1664525000430643  0.6667199999884161  0.1668466666965287
  0.4997774999985936  0.5000724999803907  0.0001766666666470
  0.4164525000430643  0.4167199999884161  0.1668466666965287
  0.7497774999985936  0.2500724999803907  0.0001766666666470
  0.6664525000430643  0.1667199999884161  0.1668466666965287
  0.9997774999985936  0.0000724999803907  0.0001766666666470
  0.9164525000430643  0.9167199999884161  0.1668466666965287
  0.4997774999985936  0.7500724999803907  0.0001766666666470
  0.4164525000430643  0.6667199999884161  0.1668466666965287
  0.7497774999985936  0.5000724999803907  0.0001766666666470
  0.6664525000430643  0.4167199999884161  0.1668466666965287
  0.9997774999985936  0.2500724999803907  0.0001766666666470
  0.9164525000430643  0.1667199999884161  0.1668466666965287
  0.7497774999985936  0.7500724999803907  0.0001766666666470
  0.6664525000430643  0.6667199999884161  0.1668466666965287
  0.9997774999985936  0.5000724999803907  0.0001766666666470
  0.9164525000430643  0.4167199999884161  0.1668466666965287
  0.9997774999985936  0.7500724999803907  0.0001766666666470
  0.9164525000430643  0.6667199999884161  0.1668466666965287
  0.2497774999985936  0.0000724999803907  0.3335099999999827
  0.1664525000430643  0.9167199999884161  0.5001800000298573
  0.2497774999985936  0.2500724999803907  0.3335099999999827
  0.1664525000430643  0.1667199999884161  0.5001800000298573
  0.4997774999985936  0.0000724999803907  0.3335099999999827
  0.4164525000430643  0.9167199999884161  0.5001800000298573
  0.2497774999985936  0.5000724999803907  0.3335099999999827
  0.1664525000430643  0.4167199999884161  0.5001800000298573
  0.4997774999985936  0.2500724999803907  0.3335099999999827
  0.4164525000430643  0.1667199999884161  0.5001800000298573
  0.7497774999985936  0.0000724999803907  0.3335099999999827
  0.6664525000430643  0.9167199999884161  0.5001800000298573
  0.2497774999985936  0.7500724999803907  0.3335099999999827
  0.1664525000430643  0.6667199999884161  0.5001800000298573
  0.4997774999985936  0.5000724999803907  0.3335099999999827
  0.4164525000430643  0.4167199999884161  0.5001800000298573
  0.7497774999985936  0.2500724999803907  0.3335099999999827
  0.6664525000430643  0.1667199999884161  0.5001800000298573
  0.9997774999985936  0.0000724999803907  0.3335099999999827
  0.9164525000430643  0.9167199999884161  0.5001800000298573
  0.4997774999985936  0.7500724999803907  0.3335099999999827
  0.4164525000430643  0.6667199999884161  0.5001800000298573
  0.7497774999985936  0.5000724999803907  0.3335099999999827
  0.6664525000430643  0.4167199999884161  0.5001800000298573
  0.9997774999985936  0.2500724999803907  0.3335099999999827
  0.9164525000430643  0.1667199999884161  0.5001800000298573
  0.7497774999985936  0.7500724999803907  0.3335099999999827
  0.6664525000430643  0.6667199999884161  0.5001800000298573
  0.9997774999985936  0.5000724999803907  0.3335099999999827
  0.9164525000430643  0.4167199999884161  0.5001800000298573
  0.9997774999985936  0.7500724999803907  0.3335099999999827
  0.9164525000430643  0.6667199999884161  0.5001800000298573
  0.2497774999985936  0.0000724999803907  0.6668433333333184
  0.1664525000430643  0.9167199999884161  0.8335133333631930
  0.2497774999985936  0.2500724999803907  0.6668433333333184
  0.1664525000430643  0.1667199999884161  0.8335133333631930
  0.4997774999985936  0.0000724999803907  0.6668433333333184
  0.4164525000430643  0.9167199999884161  0.8335133333631930
  0.2497774999985936  0.5000724999803907  0.6668433333333184
  0.1664525000430643  0.4167199999884161  0.8335133333631930
  0.4997774999985936  0.2500724999803907  0.6668433333333184
  0.4164525000430643  0.1667199999884161  0.8335133333631930
  0.7497774999985936  0.0000724999803907  0.6668433333333184
  0.6664525000430643  0.9167199999884161  0.8335133333631930
  0.2497774999985936  0.7500724999803907  0.6668433333333184
  0.1664525000430643  0.6667199999884161  0.8335133333631930
  0.4997774999985936  0.5000724999803907  0.6668433333333184
  0.4164525000430643  0.4167199999884161  0.8335133333631930
  0.7497774999985936  0.2500724999803907  0.6668433333333184
  0.6664525000430643  0.1667199999884161  0.8335133333631930
  0.9997774999985936  0.0000724999803907  0.6668433333333184
  0.9164525000430643  0.9167199999884161  0.8335133333631930
  0.4997774999985936  0.7500724999803907  0.6668433333333184
  0.4164525000430643  0.6667199999884161  0.8335133333631930
  0.7497774999985936  0.5000724999803907  0.6668433333333184
  0.6664525000430643  0.4167199999884161  0.8335133333631930
  0.9997774999985936  0.2500724999803907  0.6668433333333184
  0.9164525000430643  0.1667199999884161  0.8335133333631930
  0.7497774999985936  0.7500724999803907  0.6668433333333184
  0.6664525000430643  0.6667199999884161  0.8335133333631930
  0.9997774999985936  0.5000724999803907  0.6668433333333184
  0.9164525000430643  0.4167199999884161  0.8335133333631930
  0.9997774999985936  0.7500724999803907  0.6668433333333184
  0.9164525000430643  0.6667199999884161  0.8335133333631930
 
  0.00000000E+00  0.00000000E+00  0.00000000E+00
  0.00000000E+00  0.00000000E+00  0.00000000E+00
  0.00000000E+00  0.00000000E+00  0.00000000E+00
  0.00000000E+00  0.00000000E+00  0.00000000E+00
  0.00000000E+00  0.00000000E+00  0.00000000E+00
  0.00000000E+00  0.00000000E+00  0.00000000E+00
  0.00000000E+00  0.00000000E+00  0.00000000E+00
  0.00000000E+00  0.00000000E+00  0.00000000E+00
  0.00000000E+00  0.00000000E+00  0.00000000E+00
  0.00000000E+00  0.00000000E+00  0.00000000E+00
  0.00000000E+00  0.00000000E+00  0.00000000E+00
  0.00000000E+00  0.00000000E+00  0.00000000E+00
  0.00000000E+00  0.00000000E+00  0.00000000E+00
  0.00000000E+00  0.00000000E+00  0.00000000E+00
  0.00000000E+00  0.00000000E+00  0.00000000E+00
  0.00000000E+00  0.00000000E+00  0.00000000E+00
  0.00000000E+00  0.00000000E+00  0.00000000E+00
  0.00000000E+00  0.00000000E+00  0.00000000E+00
  0.00000000E+00  0.00000000E+00  0.00000000E+00
  0.00000000E+00  0.00000000E+00  0.00000000E+00
  0.00000000E+00  0.00000000E+00  0.00000000E+00
  0.00000000E+00  0.00000000E+00  0.00000000E+00
  0.00000000E+00  0.00000000E+00  0.00000000E+00
  0.00000000E+00  0.00000000E+00  0.00000000E+00
  0.00000000E+00  0.00000000E+00  0.00000000E+00
  0.00000000E+00  0.00000000E+00  0.00000000E+00
  0.00000000E+00  0.00000000E+00  0.00000000E+00
  0.00000000E+00  0.00000000E+00  0.00000000E+00
  0.00000000E+00  0.00000000E+00  0.00000000E+00
  0.00000000E+00  0.00000000E+00  0.00000000E+00
  0.00000000E+00  0.00000000E+00  0.00000000E+00
  0.00000000E+00  0.00000000E+00  0.00000000E+00
  0.00000000E+00  0.00000000E+00  0.00000000E+00
  0.00000000E+00  0.00000000E+00  0.00000000E+00
  0.00000000E+00  0.00000000E+00  0.00000000E+00
  0.00000000E+00  0.00000000E+00  0.00000000E+00
  0.00000000E+00  0.00000000E+00  0.00000000E+00
  0.00000000E+00  0.00000000E+00  0.00000000E+00
  0.00000000E+00  0.00000000E+00  0.00000000E+00
  0.00000000E+00  0.00000000E+00  0.00000000E+00
  0.00000000E+00  0.00000000E+00  0.00000000E+00
  0.00000000E+00  0.00000000E+00  0.00000000E+00
  0.00000000E+00  0.00000000E+00  0.00000000E+00
  0.00000000E+00  0.00000000E+00  0.00000000E+00
  0.00000000E+00  0.00000000E+00  0.00000000E+00
  0.00000000E+00  0.00000000E+00  0.00000000E+00
  0.00000000E+00  0.00000000E+00  0.00000000E+00
  0.00000000E+00  0.00000000E+00  0.00000000E+00
  0.00000000E+00  0.00000000E+00  0.00000000E+00
  0.00000000E+00  0.00000000E+00  0.00000000E+00
  0.00000000E+00  0.00000000E+00  0.00000000E+00
  0.00000000E+00  0.00000000E+00  0.00000000E+00
  0.00000000E+00  0.00000000E+00  0.00000000E+00
  0.00000000E+00  0.00000000E+00  0.00000000E+00
  0.00000000E+00  0.00000000E+00  0.00000000E+00
  0.00000000E+00  0.00000000E+00  0.00000000E+00
  0.00000000E+00  0.00000000E+00  0.00000000E+00
  0.00000000E+00  0.00000000E+00  0.00000000E+00
  0.00000000E+00  0.00000000E+00  0.00000000E+00
  0.00000000E+00  0.00000000E+00  0.00000000E+00
  0.00000000E+00  0.00000000E+00  0.00000000E+00
  0.00000000E+00  0.00000000E+00  0.00000000E+00
  0.00000000E+00  0.00000000E+00  0.00000000E+00
  0.00000000E+00  0.00000000E+00  0.00000000E+00
  0.00000000E+00  0.00000000E+00  0.00000000E+00
  0.00000000E+00  0.00000000E+00  0.00000000E+00
  0.00000000E+00  0.00000000E+00  0.00000000E+00
  0.00000000E+00  0.00000000E+00  0.00000000E+00
  0.00000000E+00  0.00000000E+00  0.00000000E+00
  0.00000000E+00  0.00000000E+00  0.00000000E+00
  0.00000000E+00  0.00000000E+00  0.00000000E+00
  0.00000000E+00  0.00000000E+00  0.00000000E+00
  0.00000000E+00  0.00000000E+00  0.00000000E+00
  0.00000000E+00  0.00000000E+00  0.00000000E+00
  0.00000000E+00  0.00000000E+00  0.00000000E+00
  0.00000000E+00  0.00000000E+00  0.00000000E+00
  0.00000000E+00  0.00000000E+00  0.00000000E+00
  0.00000000E+00  0.00000000E+00  0.00000000E+00
  0.00000000E+00  0.00000000E+00  0.00000000E+00
  0.00000000E+00  0.00000000E+00  0.00000000E+00
  0.00000000E+00  0.00000000E+00  0.00000000E+00
  0.00000000E+00  0.00000000E+00  0.00000000E+00
  0.00000000E+00  0.00000000E+00  0.00000000E+00
  0.00000000E+00  0.00000000E+00  0.00000000E+00
  0.00000000E+00  0.00000000E+00  0.00000000E+00
  0.00000000E+00  0.00000000E+00  0.00000000E+00
  0.00000000E+00  0.00000000E+00  0.00000000E+00
  0.00000000E+00  0.00000000E+00  0.00000000E+00
  0.00000000E+00  0.00000000E+00  0.00000000E+00
  0.00000000E+00  0.00000000E+00  0.00000000E+00
  0.00000000E+00  0.00000000E+00  0.00000000E+00
  0.00000000E+00  0.00000000E+00  0.00000000E+00
  0.00000000E+00  0.00000000E+00  0.00000000E+00
  0.00000000E+00  0.00000000E+00  0.00000000E+00
  0.00000000E+00  0.00000000E+00  0.00000000E+00
  0.00000000E+00  0.00000000E+00  0.00000000E+00
