title                                   
   1.00000000000000     
     5.4946674218047988   -0.0000432933596575    0.0000000000000000
    -2.7473712040509031    4.7584998214035883    0.0000000000000000
     0.0000000000000000    0.0000000000000000    4.4045040270833251
   Ir   Ru
     6     2
Direct
  0.8328558470452236  0.6657451090650994  0.2500000000000000
  0.8328538258820117  0.1671461740837401  0.2500000000000000
  0.3342548908992953  0.1671441529198034  0.2500000000000000
  0.1671441529547764  0.3342548909349006  0.7500000000000000
  0.6657451091007047  0.8328558470801966  0.7500000000000000
  0.1671461741179883  0.8328538259162599  0.7500000000000000
  0.3333219759863013  0.6666780239788324  0.2500000000000000
  0.6666780240136987  0.3333219760211676  0.7500000000000000
 
  0.00000000E+00  0.00000000E+00  0.00000000E+00
  0.00000000E+00  0.00000000E+00  0.00000000E+00
  0.00000000E+00  0.00000000E+00  0.00000000E+00
  0.00000000E+00  0.00000000E+00  0.00000000E+00
  0.00000000E+00  0.00000000E+00  0.00000000E+00
  0.00000000E+00  0.00000000E+00  0.00000000E+00
  0.00000000E+00  0.00000000E+00  0.00000000E+00
  0.00000000E+00  0.00000000E+00  0.00000000E+00
