title                                   
   1.00000000000000     
     5.4946674218047988   -0.0000432933596575   -0.0000000000000000
    -2.7473712040509031    4.7584998214035883    0.0000000000000000
     0.0000000000000000    0.0000000000000000    4.4045040270833251
   Ir   Ru
     6     2
Direct
  0.8328558470452258  0.6657451090650973  0.2500000000000000
  0.8328538258820085  0.1671461740837404  0.2500000000000000
  0.3342548908992953  0.1671441529198019  0.2500000000000000
  0.1671441529547741  0.3342548909349028  0.7500000000000000
  0.6657451091007046  0.8328558470801982  0.7500000000000000
  0.1671461741179914  0.8328538259162596  0.7500000000000000
  0.3333219759863006  0.6666780239788339  0.2500000000000000
  0.6666780240136996  0.3333219760211659  0.7500000000000000
 
  0.00000000E+00  0.00000000E+00  0.00000000E+00
  0.00000000E+00  0.00000000E+00  0.00000000E+00
  0.00000000E+00  0.00000000E+00  0.00000000E+00
  0.00000000E+00  0.00000000E+00  0.00000000E+00
  0.00000000E+00  0.00000000E+00  0.00000000E+00
  0.00000000E+00  0.00000000E+00  0.00000000E+00
  0.00000000E+00  0.00000000E+00  0.00000000E+00
  0.00000000E+00  0.00000000E+00  0.00000000E+00
