title                                   
   1.00000000000000     
    -5.4374799999999999   -9.4179999999999993    0.0000000000000000
    10.8749599999999997    0.0000000000000000    0.0000000000000000
     0.0000000000000000    0.0000000000000000   12.8916599999999999
   Ru
    96
Direct
  0.5000000000000000  0.0000000000000000  0.3333333333333357
  0.6666675000000026  0.0833350000275885  0.1666666666666643
  0.5000000000000000  0.2500000000000000  0.3333333333333357
  0.6666675000000026  0.3333350000275885  0.1666666666666643
  0.5000000000000000  0.5000000000000000  0.3333333333333357
  0.6666675000000026  0.5833350000275885  0.1666666666666643
  0.5000000000000000  0.7500000000000000  0.3333333333333357
  0.6666675000000026  0.8333350000275885  0.1666666666666643
  0.2500000000000000  0.0000000000000000  0.3333333333333357
  0.4166675000000026  0.0833350000275885  0.1666666666666643
  0.2500000000000000  0.2500000000000000  0.3333333333333357
  0.4166675000000026  0.3333350000275885  0.1666666666666643
  0.2500000000000000  0.5000000000000000  0.3333333333333357
  0.4166675000000026  0.5833350000275885  0.1666666666666643
  0.2500000000000000  0.7500000000000000  0.3333333333333357
  0.4166675000000026  0.8333350000275885  0.1666666666666643
  0.0000000000000000  0.0000000000000000  0.3333333333333357
  0.1666675000000026  0.0833350000275885  0.1666666666666643
  0.0000000000000000  0.2500000000000000  0.3333333333333357
  0.1666675000000026  0.3333350000275885  0.1666666666666643
  0.0000000000000000  0.5000000000000000  0.3333333333333357
  0.1666675000000026  0.5833350000275885  0.1666666666666643
  0.0000000000000000  0.7500000000000000  0.3333333333333357
  0.1666675000000026  0.8333350000275885  0.1666666666666643
  0.7530025000000009  0.0014999999724168  0.3311399999689755
  0.9166675000000026  0.0833350000275885  0.1666666666666643
  0.7500000000000000  0.2500000000000000  0.3333333333333357
  0.9166675000000026  0.3333350000275885  0.1666666666666643
  0.7500000000000000  0.5000000000000000  0.3333333333333357
  0.9166675000000026  0.5833350000275885  0.1666666666666643
  0.7500000000000000  0.7500000000000000  0.3333333333333357
  0.9166675000000026  0.8333350000275885  0.1666666666666643
  0.5000000000000000  0.0000000000000000  0.6666666666666643
  0.6666675000000026  0.0833350000275885  0.5000000000000000
  0.5000000000000000  0.2500000000000000  0.6666666666666643
  0.6666675000000026  0.3333350000275885  0.5000000000000000
  0.5000000000000000  0.5000000000000000  0.6666666666666643
  0.6666675000000026  0.5833350000275885  0.5000000000000000
  0.5000000000000000  0.7500000000000000  0.6666666666666643
  0.6666675000000026  0.8333350000275885  0.5000000000000000
  0.2500000000000000  0.0000000000000000  0.6666666666666643
  0.4166675000000026  0.0833350000275885  0.5000000000000000
  0.2500000000000000  0.2500000000000000  0.6666666666666643
  0.4166675000000026  0.3333350000275885  0.5000000000000000
  0.2500000000000000  0.5000000000000000  0.6666666666666643
  0.4166675000000026  0.5833350000275885  0.5000000000000000
  0.2500000000000000  0.7500000000000000  0.6666666666666643
  0.4166675000000026  0.8333350000275885  0.5000000000000000
  0.0000000000000000  0.0000000000000000  0.6666666666666643
  0.1666675000000026  0.0833350000275885  0.5000000000000000
  0.0000000000000000  0.2500000000000000  0.6666666666666643
  0.1666675000000026  0.3333350000275885  0.5000000000000000
  0.0000000000000000  0.5000000000000000  0.6666666666666643
  0.1666675000000026  0.5833350000275885  0.5000000000000000
  0.0000000000000000  0.7500000000000000  0.6666666666666643
  0.1666675000000026  0.8333350000275885  0.5000000000000000
  0.7500000000000000  0.0000000000000000  0.6666666666666643
  0.9166675000000026  0.0833350000275885  0.5000000000000000
  0.7500000000000000  0.2500000000000000  0.6666666666666643
  0.9166675000000026  0.3333350000275885  0.5000000000000000
  0.7500000000000000  0.5000000000000000  0.6666666666666643
  0.9166675000000026  0.5833350000275885  0.5000000000000000
  0.7500000000000000  0.7500000000000000  0.6666666666666643
  0.9166675000000026  0.8333350000275885  0.5000000000000000
  0.5000000000000000  0.0000000000000000  0.0000000000000000
  0.6666675000000026  0.0833350000275885  0.8333333333333357
  0.5000000000000000  0.2500000000000000  0.0000000000000000
  0.6666675000000026  0.3333350000275885  0.8333333333333357
  0.5000000000000000  0.5000000000000000  0.0000000000000000
  0.6666675000000026  0.5833350000275885  0.8333333333333357
  0.5000000000000000  0.7500000000000000  0.0000000000000000
  0.6666675000000026  0.8333350000275885  0.8333333333333357
  0.2500000000000000  0.0000000000000000  0.0000000000000000
  0.4166675000000026  0.0833350000275885  0.8333333333333357
  0.2500000000000000  0.2500000000000000  0.0000000000000000
  0.4166675000000026  0.3333350000275885  0.8333333333333357
  0.2500000000000000  0.5000000000000000  0.0000000000000000
  0.4166675000000026  0.5833350000275885  0.8333333333333357
  0.2500000000000000  0.7500000000000000  0.0000000000000000
  0.4166675000000026  0.8333350000275885  0.8333333333333357
  0.0000000000000000  0.0000000000000000  0.0000000000000000
  0.1666675000000026  0.0833350000275885  0.8333333333333357
  0.0000000000000000  0.2500000000000000  0.0000000000000000
  0.1666675000000026  0.3333350000275885  0.8333333333333357
  0.0000000000000000  0.5000000000000000  0.0000000000000000
  0.1666675000000026  0.5833350000275885  0.8333333333333357
  0.0000000000000000  0.7500000000000000  0.0000000000000000
  0.1666675000000026  0.8333350000275885  0.8333333333333357
  0.7500000000000000  0.0000000000000000  0.0000000000000000
  0.9166675000000026  0.0833350000275885  0.8333333333333357
  0.7500000000000000  0.2500000000000000  0.0000000000000000
  0.9166675000000026  0.3333350000275885  0.8333333333333357
  0.7500000000000000  0.5000000000000000  0.0000000000000000
  0.9166675000000026  0.5833350000275885  0.8333333333333357
  0.7500000000000000  0.7500000000000000  0.0000000000000000
  0.9166675000000026  0.8333350000275885  0.8333333333333357
 
  0.00000000E+00  0.00000000E+00  0.00000000E+00
  0.00000000E+00  0.00000000E+00  0.00000000E+00
  0.00000000E+00  0.00000000E+00  0.00000000E+00
  0.00000000E+00  0.00000000E+00  0.00000000E+00
  0.00000000E+00  0.00000000E+00  0.00000000E+00
  0.00000000E+00  0.00000000E+00  0.00000000E+00
  0.00000000E+00  0.00000000E+00  0.00000000E+00
  0.00000000E+00  0.00000000E+00  0.00000000E+00
  0.00000000E+00  0.00000000E+00  0.00000000E+00
  0.00000000E+00  0.00000000E+00  0.00000000E+00
  0.00000000E+00  0.00000000E+00  0.00000000E+00
  0.00000000E+00  0.00000000E+00  0.00000000E+00
  0.00000000E+00  0.00000000E+00  0.00000000E+00
  0.00000000E+00  0.00000000E+00  0.00000000E+00
  0.00000000E+00  0.00000000E+00  0.00000000E+00
  0.00000000E+00  0.00000000E+00  0.00000000E+00
  0.00000000E+00  0.00000000E+00  0.00000000E+00
  0.00000000E+00  0.00000000E+00  0.00000000E+00
  0.00000000E+00  0.00000000E+00  0.00000000E+00
  0.00000000E+00  0.00000000E+00  0.00000000E+00
  0.00000000E+00  0.00000000E+00  0.00000000E+00
  0.00000000E+00  0.00000000E+00  0.00000000E+00
  0.00000000E+00  0.00000000E+00  0.00000000E+00
  0.00000000E+00  0.00000000E+00  0.00000000E+00
  0.00000000E+00  0.00000000E+00  0.00000000E+00
  0.00000000E+00  0.00000000E+00  0.00000000E+00
  0.00000000E+00  0.00000000E+00  0.00000000E+00
  0.00000000E+00  0.00000000E+00  0.00000000E+00
  0.00000000E+00  0.00000000E+00  0.00000000E+00
  0.00000000E+00  0.00000000E+00  0.00000000E+00
  0.00000000E+00  0.00000000E+00  0.00000000E+00
  0.00000000E+00  0.00000000E+00  0.00000000E+00
  0.00000000E+00  0.00000000E+00  0.00000000E+00
  0.00000000E+00  0.00000000E+00  0.00000000E+00
  0.00000000E+00  0.00000000E+00  0.00000000E+00
  0.00000000E+00  0.00000000E+00  0.00000000E+00
  0.00000000E+00  0.00000000E+00  0.00000000E+00
  0.00000000E+00  0.00000000E+00  0.00000000E+00
  0.00000000E+00  0.00000000E+00  0.00000000E+00
  0.00000000E+00  0.00000000E+00  0.00000000E+00
  0.00000000E+00  0.00000000E+00  0.00000000E+00
  0.00000000E+00  0.00000000E+00  0.00000000E+00
  0.00000000E+00  0.00000000E+00  0.00000000E+00
  0.00000000E+00  0.00000000E+00  0.00000000E+00
  0.00000000E+00  0.00000000E+00  0.00000000E+00
  0.00000000E+00  0.00000000E+00  0.00000000E+00
  0.00000000E+00  0.00000000E+00  0.00000000E+00
  0.00000000E+00  0.00000000E+00  0.00000000E+00
  0.00000000E+00  0.00000000E+00  0.00000000E+00
  0.00000000E+00  0.00000000E+00  0.00000000E+00
  0.00000000E+00  0.00000000E+00  0.00000000E+00
  0.00000000E+00  0.00000000E+00  0.00000000E+00
  0.00000000E+00  0.00000000E+00  0.00000000E+00
  0.00000000E+00  0.00000000E+00  0.00000000E+00
  0.00000000E+00  0.00000000E+00  0.00000000E+00
  0.00000000E+00  0.00000000E+00  0.00000000E+00
  0.00000000E+00  0.00000000E+00  0.00000000E+00
  0.00000000E+00  0.00000000E+00  0.00000000E+00
  0.00000000E+00  0.00000000E+00  0.00000000E+00
  0.00000000E+00  0.00000000E+00  0.00000000E+00
  0.00000000E+00  0.00000000E+00  0.00000000E+00
  0.00000000E+00  0.00000000E+00  0.00000000E+00
  0.00000000E+00  0.00000000E+00  0.00000000E+00
  0.00000000E+00  0.00000000E+00  0.00000000E+00
  0.00000000E+00  0.00000000E+00  0.00000000E+00
  0.00000000E+00  0.00000000E+00  0.00000000E+00
  0.00000000E+00  0.00000000E+00  0.00000000E+00
  0.00000000E+00  0.00000000E+00  0.00000000E+00
  0.00000000E+00  0.00000000E+00  0.00000000E+00
  0.00000000E+00  0.00000000E+00  0.00000000E+00
  0.00000000E+00  0.00000000E+00  0.00000000E+00
  0.00000000E+00  0.00000000E+00  0.00000000E+00
  0.00000000E+00  0.00000000E+00  0.00000000E+00
  0.00000000E+00  0.00000000E+00  0.00000000E+00
  0.00000000E+00  0.00000000E+00  0.00000000E+00
  0.00000000E+00  0.00000000E+00  0.00000000E+00
  0.00000000E+00  0.00000000E+00  0.00000000E+00
  0.00000000E+00  0.00000000E+00  0.00000000E+00
  0.00000000E+00  0.00000000E+00  0.00000000E+00
  0.00000000E+00  0.00000000E+00  0.00000000E+00
  0.00000000E+00  0.00000000E+00  0.00000000E+00
  0.00000000E+00  0.00000000E+00  0.00000000E+00
  0.00000000E+00  0.00000000E+00  0.00000000E+00
  0.00000000E+00  0.00000000E+00  0.00000000E+00
  0.00000000E+00  0.00000000E+00  0.00000000E+00
  0.00000000E+00  0.00000000E+00  0.00000000E+00
  0.00000000E+00  0.00000000E+00  0.00000000E+00
  0.00000000E+00  0.00000000E+00  0.00000000E+00
  0.00000000E+00  0.00000000E+00  0.00000000E+00
  0.00000000E+00  0.00000000E+00  0.00000000E+00
  0.00000000E+00  0.00000000E+00  0.00000000E+00
  0.00000000E+00  0.00000000E+00  0.00000000E+00
  0.00000000E+00  0.00000000E+00  0.00000000E+00
  0.00000000E+00  0.00000000E+00  0.00000000E+00
  0.00000000E+00  0.00000000E+00  0.00000000E+00
  0.00000000E+00  0.00000000E+00  0.00000000E+00
