title
1.
-5.437480000 -9.418000000 0.000000000
10.874960000 0.000000000 0.000000000
0.000000000 0.000000000 12.891660000
96
Cartesian
8.156220000 -4.709000000 4.297220000    Ru
-2.718726406 -6.278674515 2.148610000    Ru
0.000000000 -4.709000000 4.297220000    Ru
0.000013594 -6.278674515 2.148610000    Ru
2.718740000 -4.709000000 4.297220000    Ru
2.718753594 -6.278674515 2.148610000    Ru
5.437480000 -4.709000000 4.297220000    Ru
5.437493594 -6.278674515 2.148610000    Ru
9.515590000 -2.354500000 4.297220000    Ru
-1.359356406 -3.924174515 2.148610000    Ru
1.359370000 -2.354500000 4.297220000    Ru
1.359383594 -3.924174515 2.148610000    Ru
4.078110000 -2.354500000 4.297220000    Ru
4.078123594 -3.924174515 2.148610000    Ru
6.796850000 -2.354500000 4.297220000    Ru
6.796863594 -3.924174515 2.148610000    Ru
5.437480000 -9.418000000 4.297220000    Ru
0.000013594 -1.569674515 2.148610000    Ru
-2.718740000 -9.418000000 4.297220000    Ru
2.718753594 -1.569674515 2.148610000    Ru
0.000000000 -9.418000000 4.297220000    Ru
5.437493594 -1.569674515 2.148610000    Ru
2.718740000 -9.418000000 4.297220000    Ru
8.156233594 -1.569674515 2.148610000    Ru
6.796836406 -7.091777545 4.268944292    Ru
-4.078096406 -8.633174515 2.148610000    Ru
-1.359370000 -7.063500000 4.297220000    Ru
-1.359356406 -8.633174515 2.148610000    Ru
1.359370000 -7.063500000 4.297220000    Ru
1.359383594 -8.633174515 2.148610000    Ru
4.078110000 -7.063500000 4.297220000    Ru
4.078123594 -8.633174515 2.148610000    Ru
8.156220000 -4.709000000 8.594440000    Ru
-2.718726406 -6.278674515 6.445830000    Ru
0.000000000 -4.709000000 8.594440000    Ru
0.000013594 -6.278674515 6.445830000    Ru
2.718740000 -4.709000000 8.594440000    Ru
2.718753594 -6.278674515 6.445830000    Ru
5.437480000 -4.709000000 8.594440000    Ru
5.437493594 -6.278674515 6.445830000    Ru
9.515590000 -2.354500000 8.594440000    Ru
-1.359356406 -3.924174515 6.445830000    Ru
1.359370000 -2.354500000 8.594440000    Ru
1.359383594 -3.924174515 6.445830000    Ru
4.078110000 -2.354500000 8.594440000    Ru
4.078123594 -3.924174515 6.445830000    Ru
6.796850000 -2.354500000 8.594440000    Ru
6.796863594 -3.924174515 6.445830000    Ru
5.437480000 -9.418000000 8.594440000    Ru
0.000013594 -1.569674515 6.445830000    Ru
-2.718740000 -9.418000000 8.594440000    Ru
2.718753594 -1.569674515 6.445830000    Ru
0.000000000 -9.418000000 8.594440000    Ru
5.437493594 -1.569674515 6.445830000    Ru
2.718740000 -9.418000000 8.594440000    Ru
8.156233594 -1.569674515 6.445830000    Ru
6.796850000 -7.063500000 8.594440000    Ru
-4.078096406 -8.633174515 6.445830000    Ru
-1.359370000 -7.063500000 8.594440000    Ru
-1.359356406 -8.633174515 6.445830000    Ru
1.359370000 -7.063500000 8.594440000    Ru
1.359383594 -8.633174515 6.445830000    Ru
4.078110000 -7.063500000 8.594440000    Ru
4.078123594 -8.633174515 6.445830000    Ru
8.156220000 -4.709000000 12.891660000    Ru
-2.718726406 -6.278674515 10.743050000    Ru
0.000000000 -4.709000000 12.891660000    Ru
0.000013594 -6.278674515 10.743050000    Ru
2.718740000 -4.709000000 12.891660000    Ru
2.718753594 -6.278674515 10.743050000    Ru
5.437480000 -4.709000000 12.891660000    Ru
5.437493594 -6.278674515 10.743050000    Ru
9.515590000 -2.354500000 12.891660000    Ru
-1.359356406 -3.924174515 10.743050000    Ru
1.359370000 -2.354500000 12.891660000    Ru
1.359383594 -3.924174515 10.743050000    Ru
4.078110000 -2.354500000 12.891660000    Ru
4.078123594 -3.924174515 10.743050000    Ru
6.796850000 -2.354500000 12.891660000    Ru
6.796863594 -3.924174515 10.743050000    Ru
5.437480000 -9.418000000 12.891660000    Ru
0.000013594 -1.569674515 10.743050000    Ru
-2.718740000 -9.418000000 12.891660000    Ru
2.718753594 -1.569674515 10.743050000    Ru
0.000000000 -9.418000000 12.891660000    Ru
5.437493594 -1.569674515 10.743050000    Ru
2.718740000 -9.418000000 12.891660000    Ru
8.156233594 -1.569674515 10.743050000    Ru
6.796850000 -7.063500000 12.891660000    Ru
-4.078096406 -8.633174515 10.743050000    Ru
-1.359370000 -7.063500000 12.891660000    Ru
-1.359356406 -8.633174515 10.743050000    Ru
1.359370000 -7.063500000 12.891660000    Ru
1.359383594 -8.633174515 10.743050000    Ru
4.078110000 -7.063500000 12.891660000    Ru
4.078123594 -8.633174515 10.743050000    Ru
