title                                   
   1.00000000000000     
    -7.6890254874983075   -3.8432890642191615    3.8434495717450257
    -7.6873323712668364    3.8414086929384319   -3.8419435288862793
     7.6880853379215264   -3.8421129148302562   -3.8441538346484090
   Ir   Ru
    16    16
Direct
  0.7504907674761632  0.2512897796365828 -0.0009690520983458
  0.8742909644268333  0.1232720838231770  0.2480412728617217
  0.6228377136785057  0.8728946473890223  0.2462523948852174
  0.7491017238324161  0.7503202691452927  0.4990938128603373
  0.8751203284001448  0.6260274212422058  0.7519636977979862
  0.6226466664932749  0.3748049388333999  0.2481427280229514
  0.7477572675898203  0.2502963876691329  0.5009816214884329
  0.6223557563982662  0.8728129997478683  0.7490555039977665
  0.2504498927433320  0.2513808046452649  0.0021285594015115
  0.4995837531354392  0.0005683733054374  0.4998959124092338
  0.1253012817448532  0.8728778797188476  0.2489137229671441
  0.2527025014092245  0.2515882667358584  0.5010552698199486
  0.1267739440999902  0.8749094525016864  0.7518488404461960
  0.0020704355469450  0.5011374786717714  0.5004630597542556
  0.1280277899211556  0.3776851083682593  0.7537390914204898
  0.0006256045491048 -0.0018123213845424  0.4992688604362161
  0.7483413511220915  0.7475595830066555 -0.0018263545131127
  0.8750119398232500  0.6238421617480316  0.2472297240360144
  0.4993850167535309  0.4996724406608397 -0.0007619501952374
  0.4993922737351605 -0.0011991899188979 -0.0020520196331700
  0.8756494768585139  0.1267531266049345  0.7529993324394659
  0.2508064679643099  0.7499570034828867  0.0011167851505802
  0.3743644745336508  0.6249772147297020  0.2500079713901191
  0.4975095982962613  0.4998233885768880  0.5001027878394149
  0.6260110795621380  0.3777283203903541  0.7518716442164243
  0.3736930717408879  0.1252478666752530  0.2497419009045792
  0.2505532952709662  0.7481497720140231  0.4987676358783305
 -0.0003710260388385  0.4999713878728980  0.0018680592420729
  0.3767262050031554  0.6253832949970888  0.7501150256660738
  0.1259345334453278  0.3762633280389430  0.2502728394116287
  0.0018626511276445  0.0015686573908077  0.0008419228752982
  0.3749931993564805  0.1242480736803267  0.7498293988204554
 
  0.00000000E+00  0.00000000E+00  0.00000000E+00
  0.00000000E+00  0.00000000E+00  0.00000000E+00
  0.00000000E+00  0.00000000E+00  0.00000000E+00
  0.00000000E+00  0.00000000E+00  0.00000000E+00
  0.00000000E+00  0.00000000E+00  0.00000000E+00
  0.00000000E+00  0.00000000E+00  0.00000000E+00
  0.00000000E+00  0.00000000E+00  0.00000000E+00
  0.00000000E+00  0.00000000E+00  0.00000000E+00
  0.00000000E+00  0.00000000E+00  0.00000000E+00
  0.00000000E+00  0.00000000E+00  0.00000000E+00
  0.00000000E+00  0.00000000E+00  0.00000000E+00
  0.00000000E+00  0.00000000E+00  0.00000000E+00
  0.00000000E+00  0.00000000E+00  0.00000000E+00
  0.00000000E+00  0.00000000E+00  0.00000000E+00
  0.00000000E+00  0.00000000E+00  0.00000000E+00
  0.00000000E+00  0.00000000E+00  0.00000000E+00
  0.00000000E+00  0.00000000E+00  0.00000000E+00
  0.00000000E+00  0.00000000E+00  0.00000000E+00
  0.00000000E+00  0.00000000E+00  0.00000000E+00
  0.00000000E+00  0.00000000E+00  0.00000000E+00
  0.00000000E+00  0.00000000E+00  0.00000000E+00
  0.00000000E+00  0.00000000E+00  0.00000000E+00
  0.00000000E+00  0.00000000E+00  0.00000000E+00
  0.00000000E+00  0.00000000E+00  0.00000000E+00
  0.00000000E+00  0.00000000E+00  0.00000000E+00
  0.00000000E+00  0.00000000E+00  0.00000000E+00
  0.00000000E+00  0.00000000E+00  0.00000000E+00
  0.00000000E+00  0.00000000E+00  0.00000000E+00
  0.00000000E+00  0.00000000E+00  0.00000000E+00
  0.00000000E+00  0.00000000E+00  0.00000000E+00
  0.00000000E+00  0.00000000E+00  0.00000000E+00
  0.00000000E+00  0.00000000E+00  0.00000000E+00
