title                                   
   1.00000000000000     
     2.7472461040770897   -0.0005234679198553    0.0018156340654615
    -1.3737014703008112    2.3791317341687734   -0.0029035302757774
    -0.0026196410151467    0.0054787891227622    4.4660565179598217
   Ir
     2
Direct
  0.9991119952717753  0.9993990130357275  0.0005258745660157
  0.6658060046562113  0.3326939870197236  0.5005361255113883
 
  0.00000000E+00  0.00000000E+00  0.00000000E+00
  0.00000000E+00  0.00000000E+00  0.00000000E+00
