title
1.
2.834220000 -0.006326000 0.003246000
-1.422207000 2.453008000 0.003775000
-0.000523000 0.019603000 4.638399000
2
Cartesian
-0.006280144 0.003666487 0.004003766    Ir
1.418236993 0.816576346 2.323533689    Ir
