title                                   
   1.00000000000000     
     2.7472461040770897   -0.0005234679198553    0.0018156340654615
    -1.3737014703008112    2.3791317341687734   -0.0029035302757774
    -0.0026196410151467    0.0054787891227622    4.4660565179598217
   Ir
     2
Direct
  0.9991119952717774 -0.0006009869642713  0.0005258745660184
  0.6658060046562092  0.3326939870197225  0.5005361255113856
 
  0.00000000E+00  0.00000000E+00  0.00000000E+00
  0.00000000E+00  0.00000000E+00  0.00000000E+00
