title
1.
7.715980000 0.000000000 7.715980000
7.715980000 7.715980000 0.000000000
0.000000000 7.715980000 7.715980000
48 16
Cartesian
3.857990000 9.644975000 9.644975000    Ir
9.644975000 3.857990000 9.644975000    Ir
9.644975000 9.644975000 3.857990000    Ir
7.715980000 13.502965000 9.644975000    Ir
13.502965000 7.715980000 9.644975000    Ir
5.786985000 5.786985000 3.857990000    Ir
7.715980000 9.644975000 13.502965000    Ir
5.786985000 3.857990000 5.786985000    Ir
13.502965000 9.644975000 7.715980000    Ir
3.857990000 5.786985000 5.786985000    Ir
9.644975000 7.715980000 13.502965000    Ir
9.644975000 13.502965000 7.715980000    Ir
7.715980000 5.786985000 5.786985000    Ir
5.786985000 7.715980000 5.786985000    Ir
5.786985000 5.786985000 7.715980000    Ir
11.573970000 13.502965000 13.502965000    Ir
9.644975000 7.715980000 5.786985000    Ir
9.644975000 5.786985000 7.715980000    Ir
7.715980000 9.644975000 5.786985000    Ir
13.502965000 11.573970000 13.502965000    Ir
5.786985000 9.644975000 7.715980000    Ir
11.573970000 9.644975000 5.786985000    Ir
9.644975000 11.573970000 5.786985000    Ir
9.644975000 9.644975000 7.715980000    Ir
7.715980000 5.786985000 9.644975000    Ir
5.786985000 7.715980000 9.644975000    Ir
13.502965000 13.502965000 11.573970000    Ir
11.573970000 5.786985000 9.644975000    Ir
9.644975000 7.715980000 9.644975000    Ir
9.644975000 5.786985000 11.573970000    Ir
7.715980000 9.644975000 9.644975000    Ir
5.786985000 11.573970000 9.644975000    Ir
5.786985000 9.644975000 11.573970000    Ir
11.573970000 9.644975000 9.644975000    Ir
9.644975000 11.573970000 9.644975000    Ir
9.644975000 9.644975000 11.573970000    Ir
15.431960000 9.644975000 9.644975000    Ir
13.502965000 11.573970000 9.644975000    Ir
13.502965000 9.644975000 11.573970000    Ir
11.573970000 13.502965000 9.644975000    Ir
9.644975000 15.431960000 9.644975000    Ir
9.644975000 13.502965000 11.573970000    Ir
11.573970000 9.644975000 13.502965000    Ir
9.644975000 11.573970000 13.502965000    Ir
9.644975000 9.644975000 15.431960000    Ir
15.431960000 13.502965000 13.502965000    Ir
13.502965000 15.431960000 13.502965000    Ir
13.502965000 13.502965000 15.431960000    Ir
3.897997356 3.857990000 3.857990000    Ru
7.715980000 7.715980000 3.857990000    Ru
7.715980000 3.857990000 7.715980000    Ru
3.857990000 7.715980000 7.715980000    Ru
7.715980000 7.715980000 7.715980000    Ru
11.573970000 7.715980000 7.715980000    Ru
7.715980000 11.573970000 7.715980000    Ru
11.573970000 11.573970000 7.715980000    Ru
7.715980000 7.715980000 11.573970000    Ru
11.573970000 7.715980000 11.573970000    Ru
7.715980000 11.573970000 11.573970000    Ru
11.573970000 11.573970000 11.573970000    Ru
15.431960000 11.573970000 11.573970000    Ru
11.573970000 15.431960000 11.573970000    Ru
11.573970000 11.573970000 15.431960000    Ru
15.431960000 15.431960000 15.431960000    Ru
