title                                   
   1.00000000000000     
     0.0003140260256221   -3.8621460466207131   -7.7223358514674656
    -0.0000542427941239   -7.7254404385348119    0.0005744313333767
   -15.4503156916602773   -0.0001085001680826    0.0006826077788815
   Ir   Ru
    52    12
Direct
  0.7520172437794344  0.8731585596336018  0.7488100687671349
  0.7506340579988375  0.8731010379098620  0.5001422891724374
  0.7493596304244292  0.8752429881532677  0.0001918102243081
  0.7481486462285787  0.3766239914800309  0.7494420308545813
  0.7506127869854708  0.3763240430809276  0.4995371595571640
  0.7496695665581825  0.3760298364489927  0.2515870358688446
  0.7492153477694785  0.3753342392638714  0.9993647894155941
  0.2504688070712149  0.6240212741328577  0.5006392263261858
  0.2496772188268181  0.6233589388379457  0.2509503777714102
  0.2514440804642533  0.6234858877469378  0.9997540591054843
  0.2499266349797580  0.1250331355886516  0.7486382448731206
  0.2486472575823058  0.1265817114641550  0.4998583458534966
  0.2502915411098456  0.1266949892366682  0.2508759682963273
  0.2495324775522931  0.1261354773646772  0.0005393891598544
  0.7486912138969259  0.6249674665673766  0.8747315142517493
  0.7503525556000454  0.6253824578497671  0.1257578095788929
  0.7495957318334234  0.1259333360159971  0.8751846518183939
  0.7512724336384053  0.1236605306155312  0.6250771132127042
  0.7496650989383937  0.1263272410828975  0.3744367020714634
  0.7496043973513196  0.1244966312108886  0.1253603892152739
  0.2512218870841778  0.3761804347176110  0.8746991731909191
  0.2503123443724249  0.8729500520162006  0.8742320426540005
  0.2503355576985058  0.8747974542831969  0.3753183431719975
  0.2495608084022791  0.8751286647575611  0.1247891337699869
  0.4966687236181855  0.5027467733472974  0.6251048577027802
  0.4985685844039907  0.4998745599556003  0.1253795485097839
  0.4990960559931921  0.0005547246985671  0.8746574479094562
  0.5006131410160819  0.9984378861295227  0.6247662195840746
  0.4994834604172169  0.0003369417350214  0.3749326380633562
  0.5006725838421673  0.0005010680348221  0.1257225223369147
  0.9992044609176673  0.2505079838938613  0.8748900083369193
  0.0020381512674277  0.2501441870199770  0.6245782391112016
  0.0017076028893186  0.2501481549880680  0.1255081410651755
  0.0019392129792948  0.7488347237795949  0.8741156522562790
  0.0003178998014732  0.7477844558914981  0.3751449310649733
  0.9988592903057025  0.7496267553561324  0.1254491179858448
  0.4994999695974158  0.7486419355449385  0.7491339300528068
  0.5010419730400102  0.7487073049098427  0.4999114873281059
  0.5017380470442774  0.7492408140800038  0.2512660519197212
  0.5000733085392071  0.7491393870911267  0.9996540512727705
  0.4980498294211344  0.2527106008221551  0.7493567554945670
  0.4984406604496314  0.2515604491871457  0.4997098605502615
  0.4988792936212576  0.2505617044192547  0.2508769959020043
  0.4988486117726723  0.2513067564208953  0.0001183649860081
  0.0009948876600419  0.5011797254013857  0.7482176812827390
  0.0001519359735624  0.5000325469847553  0.4999887945208954
  0.9998200054691750  0.4999491766565356  0.2514557811484721
  0.0007394293431275  0.4998283796241410  0.0004031382402019
  0.0016942556225459  0.9973644224566911  0.7485734846489507
  0.0006534117845263  0.9995331534756389  0.5002381151901574
  0.9993639121538749  0.0003585065240514  0.2510712409224425
  0.0000997861117753  0.9997785690379715  0.9999822751065324
  0.7503781171766875  0.8741219967482721  0.2508767259394276
  0.2500185789090494  0.6252038705051461  0.7486145105776956
  0.7503478251187445  0.6256085516611876  0.6247327152897881
  0.7504425956229852  0.6234055401540388  0.3747500425943926
  0.2487618213596079  0.3775263563638873  0.6252222945521027
  0.2496122793342153  0.3749420748429486  0.3748635544388961
  0.2506201069926135  0.3746951900509927  0.1250151323665634
  0.2496633437972164  0.8733764962052248  0.6257552504705473
  0.4997337975776475  0.5000660514737305  0.8744081165752320
  0.5015158821490573  0.4992522927918515  0.3752043967921708
  0.9988262404729156  0.2529095390772085  0.3749756125209487
  0.0005636002865046  0.7485500131995622  0.6254566472075140
 
  0.00000000E+00  0.00000000E+00  0.00000000E+00
  0.00000000E+00  0.00000000E+00  0.00000000E+00
  0.00000000E+00  0.00000000E+00  0.00000000E+00
  0.00000000E+00  0.00000000E+00  0.00000000E+00
  0.00000000E+00  0.00000000E+00  0.00000000E+00
  0.00000000E+00  0.00000000E+00  0.00000000E+00
  0.00000000E+00  0.00000000E+00  0.00000000E+00
  0.00000000E+00  0.00000000E+00  0.00000000E+00
  0.00000000E+00  0.00000000E+00  0.00000000E+00
  0.00000000E+00  0.00000000E+00  0.00000000E+00
  0.00000000E+00  0.00000000E+00  0.00000000E+00
  0.00000000E+00  0.00000000E+00  0.00000000E+00
  0.00000000E+00  0.00000000E+00  0.00000000E+00
  0.00000000E+00  0.00000000E+00  0.00000000E+00
  0.00000000E+00  0.00000000E+00  0.00000000E+00
  0.00000000E+00  0.00000000E+00  0.00000000E+00
  0.00000000E+00  0.00000000E+00  0.00000000E+00
  0.00000000E+00  0.00000000E+00  0.00000000E+00
  0.00000000E+00  0.00000000E+00  0.00000000E+00
  0.00000000E+00  0.00000000E+00  0.00000000E+00
  0.00000000E+00  0.00000000E+00  0.00000000E+00
  0.00000000E+00  0.00000000E+00  0.00000000E+00
  0.00000000E+00  0.00000000E+00  0.00000000E+00
  0.00000000E+00  0.00000000E+00  0.00000000E+00
  0.00000000E+00  0.00000000E+00  0.00000000E+00
  0.00000000E+00  0.00000000E+00  0.00000000E+00
  0.00000000E+00  0.00000000E+00  0.00000000E+00
  0.00000000E+00  0.00000000E+00  0.00000000E+00
  0.00000000E+00  0.00000000E+00  0.00000000E+00
  0.00000000E+00  0.00000000E+00  0.00000000E+00
  0.00000000E+00  0.00000000E+00  0.00000000E+00
  0.00000000E+00  0.00000000E+00  0.00000000E+00
  0.00000000E+00  0.00000000E+00  0.00000000E+00
  0.00000000E+00  0.00000000E+00  0.00000000E+00
  0.00000000E+00  0.00000000E+00  0.00000000E+00
  0.00000000E+00  0.00000000E+00  0.00000000E+00
  0.00000000E+00  0.00000000E+00  0.00000000E+00
  0.00000000E+00  0.00000000E+00  0.00000000E+00
  0.00000000E+00  0.00000000E+00  0.00000000E+00
  0.00000000E+00  0.00000000E+00  0.00000000E+00
  0.00000000E+00  0.00000000E+00  0.00000000E+00
  0.00000000E+00  0.00000000E+00  0.00000000E+00
  0.00000000E+00  0.00000000E+00  0.00000000E+00
  0.00000000E+00  0.00000000E+00  0.00000000E+00
  0.00000000E+00  0.00000000E+00  0.00000000E+00
  0.00000000E+00  0.00000000E+00  0.00000000E+00
  0.00000000E+00  0.00000000E+00  0.00000000E+00
  0.00000000E+00  0.00000000E+00  0.00000000E+00
  0.00000000E+00  0.00000000E+00  0.00000000E+00
  0.00000000E+00  0.00000000E+00  0.00000000E+00
  0.00000000E+00  0.00000000E+00  0.00000000E+00
  0.00000000E+00  0.00000000E+00  0.00000000E+00
  0.00000000E+00  0.00000000E+00  0.00000000E+00
  0.00000000E+00  0.00000000E+00  0.00000000E+00
  0.00000000E+00  0.00000000E+00  0.00000000E+00
  0.00000000E+00  0.00000000E+00  0.00000000E+00
  0.00000000E+00  0.00000000E+00  0.00000000E+00
  0.00000000E+00  0.00000000E+00  0.00000000E+00
  0.00000000E+00  0.00000000E+00  0.00000000E+00
  0.00000000E+00  0.00000000E+00  0.00000000E+00
  0.00000000E+00  0.00000000E+00  0.00000000E+00
  0.00000000E+00  0.00000000E+00  0.00000000E+00
  0.00000000E+00  0.00000000E+00  0.00000000E+00
  0.00000000E+00  0.00000000E+00  0.00000000E+00
