title                                   
   1.00000000000000     
     0.0003140260256221   -3.8621460466207131   -7.7223358514674656
    -0.0000542427941239   -7.7254404385348119    0.0005744313333767
   -15.4503156916602773   -0.0001085001680826    0.0006826077788815
   Ir   Ru
    52    12
Direct
  0.7520172437794373  0.8731585596335986  0.7488100687671336
  0.7506340579988404  0.8731010379098592  0.5001422891724384
  0.7493596304244267  0.8752429881532710  0.0001918102243101
  0.7481486462285752  0.3766239914800290  0.7494420308545787
  0.7506127869854697  0.3763240430809300  0.4995371595571651
  0.7496695665581803  0.3760298364489950  0.2515870358688460
  0.7492153477694782  0.3753342392638697 -0.0006352105844068
  0.2504688070712183  0.6240212741328605  0.5006392263261876
  0.2496772188268176  0.6233589388379456  0.2509503777714113
  0.2514440804642513  0.6234858877469401 -0.0002459408945187
  0.2499266349797598  0.1250331355886497  0.7486382448731203
  0.2486472575823082  0.1265817114641576  0.4998583458534963
  0.2502915411098439  0.1266949892366665  0.2508759682963284
  0.2495324775522945  0.1261354773646775  0.0005393891598532
  0.7486912138969239  0.6249674665673753  0.8747315142517523
  0.7503525556000487  0.6253824578497670  0.1257578095788917
  0.7495957318334251  0.1259333360159936  0.8751846518183929
  0.7512724336384031  0.1236605306155297  0.6250771132127064
  0.7496650989383934  0.1263272410828975  0.3744367020714610
  0.7496043973513171  0.1244966312108903  0.1253603892152735
  0.2512218870841778  0.3761804347176118  0.8746991731909195
  0.2503123443724248  0.8729500520162039  0.8742320426540031
  0.2503355576985072  0.8747974542831964  0.3753183431719958
  0.2495608084022804  0.8751286647575581  0.1247891337699847
  0.4966687236181876  0.5027467733472983  0.6251048577027774
  0.4985685844039903  0.4998745599555977  0.1253795485097813
  0.4990960559931920  0.0005547246985685  0.8746574479094597
  0.5006131410160791 -0.0015621138704808  0.6247662195840715
  0.4994834604172158  0.0003369417350213  0.3749326380633572
  0.5006725838421688  0.0005010680348190  0.1257225223369143
 -0.0007955390823345  0.2505079838938586  0.8748900083369229
  0.0020381512674256  0.2501441870199744  0.6245782391112010
  0.0017076028893154  0.2501481549880660  0.1255081410651732
  0.0019392129792920  0.7488347237795928  0.8741156522562771
  0.0003178998014755  0.7477844558914963  0.3751449310649700
 -0.0011407096942954  0.7496267553561313  0.1254491179858439
  0.4994999695974162  0.7486419355449362  0.7491339300528068
  0.5010419730400072  0.7487073049098463  0.4999114873281083
  0.5017380470442800  0.7492408140800021  0.2512660519197193
  0.5000733085392086  0.7491393870911247 -0.0003459487272297
  0.4980498294211359  0.2527106008221541  0.7493567554945676
  0.4984406604496292  0.2515604491871469  0.4997098605502585
  0.4988792936212547  0.2505617044192523  0.2508769959020071
  0.4988486117726712  0.2513067564208924  0.0001183649860113
  0.0009948876600405  0.5011797254013821  0.7482176812827414
  0.0001519359735654  0.5000325469847519  0.4999887945208945
 -0.0001799945308268  0.4999491766565353  0.2514557811484735
  0.0007394293431268  0.4998283796241425  0.0004031382402033
  0.0016942556225492 -0.0026355775433060  0.7485734846489492
  0.0006534117845236 -0.0004668465243610  0.5002381151901549
 -0.0006360878461271  0.0003585065240536  0.2510712409224440
  0.0000997861117723 -0.0002214309620293 -0.0000177248934656
  0.7503781171766846  0.8741219967482753  0.2508767259394264
  0.2500185789090519  0.6252038705051479  0.7486145105776939
  0.7503478251187442  0.6256085516611907  0.6247327152897866
  0.7504425956229850  0.6234055401540424  0.3747500425943958
  0.2487618213596113  0.3775263563638903  0.6252222945521022
  0.2496122793342130  0.3749420748429494  0.3748635544388965
  0.2506201069926163  0.3746951900509908  0.1250151323665621
  0.2496633437972194  0.8733764962052226  0.6257552504705501
  0.4997337975776497  0.5000660514737337  0.8744081165752334
  0.5015158821490591  0.4992522927918490  0.3752043967921713
 -0.0011737595270812  0.2529095390772055  0.3749756125209476
  0.0005636002865047  0.7485500131995623  0.6254566472075156
 
  0.00000000E+00  0.00000000E+00  0.00000000E+00
  0.00000000E+00  0.00000000E+00  0.00000000E+00
  0.00000000E+00  0.00000000E+00  0.00000000E+00
  0.00000000E+00  0.00000000E+00  0.00000000E+00
  0.00000000E+00  0.00000000E+00  0.00000000E+00
  0.00000000E+00  0.00000000E+00  0.00000000E+00
  0.00000000E+00  0.00000000E+00  0.00000000E+00
  0.00000000E+00  0.00000000E+00  0.00000000E+00
  0.00000000E+00  0.00000000E+00  0.00000000E+00
  0.00000000E+00  0.00000000E+00  0.00000000E+00
  0.00000000E+00  0.00000000E+00  0.00000000E+00
  0.00000000E+00  0.00000000E+00  0.00000000E+00
  0.00000000E+00  0.00000000E+00  0.00000000E+00
  0.00000000E+00  0.00000000E+00  0.00000000E+00
  0.00000000E+00  0.00000000E+00  0.00000000E+00
  0.00000000E+00  0.00000000E+00  0.00000000E+00
  0.00000000E+00  0.00000000E+00  0.00000000E+00
  0.00000000E+00  0.00000000E+00  0.00000000E+00
  0.00000000E+00  0.00000000E+00  0.00000000E+00
  0.00000000E+00  0.00000000E+00  0.00000000E+00
  0.00000000E+00  0.00000000E+00  0.00000000E+00
  0.00000000E+00  0.00000000E+00  0.00000000E+00
  0.00000000E+00  0.00000000E+00  0.00000000E+00
  0.00000000E+00  0.00000000E+00  0.00000000E+00
  0.00000000E+00  0.00000000E+00  0.00000000E+00
  0.00000000E+00  0.00000000E+00  0.00000000E+00
  0.00000000E+00  0.00000000E+00  0.00000000E+00
  0.00000000E+00  0.00000000E+00  0.00000000E+00
  0.00000000E+00  0.00000000E+00  0.00000000E+00
  0.00000000E+00  0.00000000E+00  0.00000000E+00
  0.00000000E+00  0.00000000E+00  0.00000000E+00
  0.00000000E+00  0.00000000E+00  0.00000000E+00
  0.00000000E+00  0.00000000E+00  0.00000000E+00
  0.00000000E+00  0.00000000E+00  0.00000000E+00
  0.00000000E+00  0.00000000E+00  0.00000000E+00
  0.00000000E+00  0.00000000E+00  0.00000000E+00
  0.00000000E+00  0.00000000E+00  0.00000000E+00
  0.00000000E+00  0.00000000E+00  0.00000000E+00
  0.00000000E+00  0.00000000E+00  0.00000000E+00
  0.00000000E+00  0.00000000E+00  0.00000000E+00
  0.00000000E+00  0.00000000E+00  0.00000000E+00
  0.00000000E+00  0.00000000E+00  0.00000000E+00
  0.00000000E+00  0.00000000E+00  0.00000000E+00
  0.00000000E+00  0.00000000E+00  0.00000000E+00
  0.00000000E+00  0.00000000E+00  0.00000000E+00
  0.00000000E+00  0.00000000E+00  0.00000000E+00
  0.00000000E+00  0.00000000E+00  0.00000000E+00
  0.00000000E+00  0.00000000E+00  0.00000000E+00
  0.00000000E+00  0.00000000E+00  0.00000000E+00
  0.00000000E+00  0.00000000E+00  0.00000000E+00
  0.00000000E+00  0.00000000E+00  0.00000000E+00
  0.00000000E+00  0.00000000E+00  0.00000000E+00
  0.00000000E+00  0.00000000E+00  0.00000000E+00
  0.00000000E+00  0.00000000E+00  0.00000000E+00
  0.00000000E+00  0.00000000E+00  0.00000000E+00
  0.00000000E+00  0.00000000E+00  0.00000000E+00
  0.00000000E+00  0.00000000E+00  0.00000000E+00
  0.00000000E+00  0.00000000E+00  0.00000000E+00
  0.00000000E+00  0.00000000E+00  0.00000000E+00
  0.00000000E+00  0.00000000E+00  0.00000000E+00
  0.00000000E+00  0.00000000E+00  0.00000000E+00
  0.00000000E+00  0.00000000E+00  0.00000000E+00
  0.00000000E+00  0.00000000E+00  0.00000000E+00
  0.00000000E+00  0.00000000E+00  0.00000000E+00
