title                                   
   1.00000000000000     
     1.3593700000000000    7.0635000000000003   -4.2972200000000003
     5.4374799999999999    4.7089999999999996   -4.2972200000000003
    -6.7968500000000001  -11.7725000000000009   -8.5944400000000005
   Ru
    40
Direct
  0.4423295000331038  0.3671394999595421  0.5952655000036771
  0.3277564999172426  0.6312465001011489  0.7704984999908078
  0.5000000000000000  0.5000000000000000  0.5000000000000000
  0.4083299999503467  0.7416700000606866  0.6749999999944833
  0.6000000000000014  0.6000000000000014  0.3999999999999986
  0.5083299999503481  0.8416700000606880  0.5749999999944819
  0.7000000000000028  0.7000000000000028  0.2999999999999972
  0.6083299999503424  0.9416700000606895  0.4749999999944805
  0.7999999999999972  0.7999999999999972  0.2000000000000028
  0.7083299999503438  0.0416700000606909  0.3749999999944791
  0.9500000000000028  0.9500000000000028  0.5499999999999972
  0.8583299999503424  0.1916700000606895  0.7249999999944805
  0.0499999999999972  0.0499999999999972  0.4500000000000028
  0.9583299999503438  0.2916700000606909  0.6249999999944791
  0.1499999999999986  0.1499999999999986  0.3500000000000014
  0.0583299999503453  0.3916700000606923  0.5249999999944848
  0.2500000000000000  0.2500000000000000  0.2500000000000000
  0.1583299999503467  0.4916700000606866  0.4249999999944833
  0.3514320000662039  0.3492319999190769  0.1496680000073596
  0.2583299999503481  0.5916700000606880  0.3249999999944819
  0.4500000000000028  0.4500000000000028  0.0499999999999972
  0.3583299999503424  0.6916700000606895  0.2249999999944805
  0.5499999999999972  0.5499999999999972  0.9500000000000028
  0.4583299999503438  0.7916700000606909  0.1249999999944791
  0.6499999999999986  0.6499999999999986  0.8500000000000014
  0.5583299999503453  0.8916700000606923  0.0249999999944848
  0.7500000000000000  0.7500000000000000  0.7500000000000000
  0.6583299999503467  0.9916700000606866  0.9249999999944833
  0.8999999999999986  0.8999999999999986  0.1000000000000014
  0.8083299999503453  0.1416700000606923  0.2749999999944848
  0.9982765000331071  0.0021064999595382  0.9998085000036809
  0.9083299999503467  0.2416700000606866  0.1749999999944833
  0.1000000000000014  0.1000000000000014  0.8999999999999986
  0.0083299999503481  0.3416700000606880  0.0749999999944819
  0.2000000000000028  0.2000000000000028  0.7999999999999972
  0.1083299999503424  0.4416700000606895  0.9749999999944805
  0.2999999999999972  0.2999999999999972  0.7000000000000028
  0.2083299999503438  0.5416700000606909  0.8749999999944791
  0.8500000000000014  0.8500000000000014  0.6499999999999986
  0.7583299999503481  0.0916700000606880  0.8249999999944819
 
  0.00000000E+00  0.00000000E+00  0.00000000E+00
  0.00000000E+00  0.00000000E+00  0.00000000E+00
  0.00000000E+00  0.00000000E+00  0.00000000E+00
  0.00000000E+00  0.00000000E+00  0.00000000E+00
  0.00000000E+00  0.00000000E+00  0.00000000E+00
  0.00000000E+00  0.00000000E+00  0.00000000E+00
  0.00000000E+00  0.00000000E+00  0.00000000E+00
  0.00000000E+00  0.00000000E+00  0.00000000E+00
  0.00000000E+00  0.00000000E+00  0.00000000E+00
  0.00000000E+00  0.00000000E+00  0.00000000E+00
  0.00000000E+00  0.00000000E+00  0.00000000E+00
  0.00000000E+00  0.00000000E+00  0.00000000E+00
  0.00000000E+00  0.00000000E+00  0.00000000E+00
  0.00000000E+00  0.00000000E+00  0.00000000E+00
  0.00000000E+00  0.00000000E+00  0.00000000E+00
  0.00000000E+00  0.00000000E+00  0.00000000E+00
  0.00000000E+00  0.00000000E+00  0.00000000E+00
  0.00000000E+00  0.00000000E+00  0.00000000E+00
  0.00000000E+00  0.00000000E+00  0.00000000E+00
  0.00000000E+00  0.00000000E+00  0.00000000E+00
  0.00000000E+00  0.00000000E+00  0.00000000E+00
  0.00000000E+00  0.00000000E+00  0.00000000E+00
  0.00000000E+00  0.00000000E+00  0.00000000E+00
  0.00000000E+00  0.00000000E+00  0.00000000E+00
  0.00000000E+00  0.00000000E+00  0.00000000E+00
  0.00000000E+00  0.00000000E+00  0.00000000E+00
  0.00000000E+00  0.00000000E+00  0.00000000E+00
  0.00000000E+00  0.00000000E+00  0.00000000E+00
  0.00000000E+00  0.00000000E+00  0.00000000E+00
  0.00000000E+00  0.00000000E+00  0.00000000E+00
  0.00000000E+00  0.00000000E+00  0.00000000E+00
  0.00000000E+00  0.00000000E+00  0.00000000E+00
  0.00000000E+00  0.00000000E+00  0.00000000E+00
  0.00000000E+00  0.00000000E+00  0.00000000E+00
  0.00000000E+00  0.00000000E+00  0.00000000E+00
  0.00000000E+00  0.00000000E+00  0.00000000E+00
  0.00000000E+00  0.00000000E+00  0.00000000E+00
  0.00000000E+00  0.00000000E+00  0.00000000E+00
  0.00000000E+00  0.00000000E+00  0.00000000E+00
  0.00000000E+00  0.00000000E+00  0.00000000E+00
