title
1.
5.483200000 -14.254070000 4.352110000
-10.971580000 -9.503820000 8.707000000
-10.972680000 -9.507700000 -8.712420000
128 128
Cartesian
-10.985257463 -14.261845920 -4.347965556    Ir
-8.222155041 -14.243859765 -4.356810093    Ir
-12.345928998 -11.887176877 -4.368569125    Ir
-6.853172239 -7.143890181 -4.346573780    Ir
-9.614222298 -16.637458105 -0.035390897    Ir
-9.585623610 -11.872591476 -0.015504924    Ir
-4.129032997 -11.897394259 0.030326040    Ir
-9.603192439 -13.470927088 -2.168673182    Ir
-6.855339986 -13.460165377 -2.172729854    Ir
-9.594401037 -8.723007552 -6.536134046    Ir
-10.969072069 -11.078059118 -2.190623143    Ir
-5.501071965 -11.084432705 -2.191297368    Ir
-4.121076838 -8.709214194 -2.190397245    Ir
-10.971815523 -11.087340919 -6.524968719    Ir
-8.229467198 -15.840689231 2.164849752    Ir
-13.699496904 -15.838512971 -2.169996270    Ir
-16.471047463 -19.013755920 0.005534444    Ir
-13.707945041 -18.995769765 -0.003310093    Ir
-17.831718998 -16.639086877 -0.015069125    Ir
-12.338907391 -11.895847682 0.006969762    Ir
-15.100067161 -21.389415644 4.318065541    Ir
-15.071358747 -16.624453938 4.338038638    Ir
-9.614822997 -16.649304259 4.383826040    Ir
-15.088982439 -18.222837088 2.184826818    Ir
-12.341129986 -18.212075377 2.180770146    Ir
-15.080191037 -13.474917552 -2.182634046    Ir
-16.454862069 -15.829969118 2.162876857    Ir
-10.986861965 -15.836342705 2.162202632    Ir
-9.606866838 -13.461124194 2.163102755    Ir
-16.457605523 -15.839250919 -2.171468719    Ir
-13.715257198 -20.592599231 6.518349752    Ir
-19.185286904 -20.590422971 2.183503730    Ir
-5.498917463 -9.507995920 0.008244444    Ir
-2.735815041 -9.490009765 -0.000600093    Ir
-6.859588998 -7.133326878 -0.012359125    Ir
-1.366777391 -2.390087682 0.009679762    Ir
-4.127882298 -11.883608105 4.320819103    Ir
-4.099283610 -7.118741476 4.340705076    Ir
-9.615372997 -16.651244259 -4.325883960    Ir
-4.116852439 -8.717077088 2.187536818    Ir
-1.368999986 -8.706315377 2.183480146    Ir
-4.108061037 -3.969157552 -2.179924047    Ir
-5.482732069 -6.324209118 2.165586857    Ir
-0.014731965 -6.330582705 2.164912632    Ir
-9.607416838 -13.463064194 -6.546607245    Ir
-5.485475523 -6.333490919 -2.168758719    Ir
-13.715807198 -20.594539231 -2.191360248    Ir
-8.213156904 -11.084662971 2.186213730    Ir
-5.500487463 -19.011955920 0.006194444    Ir
-2.737385041 -18.993969765 -0.002650093    Ir
-6.861158998 -16.637286877 -0.014409125    Ir
-1.368402239 -11.894000181 0.007586220    Ir
-4.129452298 -21.387568105 4.318769103    Ir
-4.100853610 -16.622701476 4.338655076    Ir
1.355737002 -16.647504259 4.384486040    Ir
-4.118422439 -18.221037088 2.185486818    Ir
-1.370569986 -18.210275377 2.181430146    Ir
-4.109631037 -13.473117552 -2.181974046    Ir
-5.484302069 -15.828169118 2.163536857    Ir
-0.016356828 -15.834590244 2.162819070    Ir
1.363693162 -13.459324194 2.163762755    Ir
-5.487045523 -15.837450919 -2.170808719    Ir
-2.744697198 -20.590799231 6.519009752    Ir
-8.214726904 -20.588622971 2.184163730    Ir
-10.984707463 -14.259905920 4.361744444    Ir
-8.221605041 -14.241919765 4.352899907    Ir
-12.345378998 -11.885236877 4.341140875    Ir
-6.852567391 -7.141997682 4.363179762    Ir
-9.613672298 -16.635518105 8.674319103    Ir
-9.585073610 -11.870651476 8.694205076    Ir
-15.101162997 -21.403154259 0.027616040    Ir
-9.602642439 -13.468987088 6.541036818    Ir
-6.854789986 -13.458225377 6.536980146    Ir
-9.593851037 -8.721067552 2.173575954    Ir
-10.968522069 -11.076119118 6.519086857    Ir
-5.500521965 -11.082492705 6.518412632    Ir
-15.093206838 -18.214974194 -2.193107245    Ir
-10.971265523 -11.085400919 2.184741281    Ir
-19.201597198 -25.346449231 2.162139752    Ir
-13.698946904 -15.836572971 6.539713730    Ir
-10.986277463 -23.763865920 4.359694444    Ir
-8.223175041 -23.745879765 4.350849907    Ir
-12.346948998 -21.389196877 4.339090875    Ir
-6.854192239 -16.645910181 4.361086220    Ir
-9.615242298 -26.139478105 8.672269103    Ir
-9.586588747 -21.374563938 8.692198638    Ir
-4.130052997 -21.399414259 8.737986040    Ir
-9.604212439 -22.972947088 6.538986818    Ir
-6.856359986 -22.962185377 6.534930146    Ir
-9.595421037 -18.225027552 2.171525954    Ir
-10.970092069 -20.580079118 6.517036857    Ir
-5.502091965 -20.586452705 6.516362632    Ir
-4.122096838 -18.211234194 6.517262755    Ir
-10.972835523 -20.589360919 2.182691281    Ir
-8.230487198 -25.342709231 10.872509752    Ir
-13.700516904 -25.340532971 6.537663730    Ir
-0.014147463 -14.258105920 4.362404444    Ir
2.748954959 -14.240119765 4.353559907    Ir
-1.374818998 -11.883436877 4.341800875    Ir
-6.854684861 -16.647888758 -4.308515572    Ir
-9.615792298 -26.141418105 -0.037440897    Ir
-9.587193610 -21.376551476 -0.017554924    Ir
-4.130602998 -21.401354259 0.028276040    Ir
-9.604762439 -22.974887088 -2.170723182    Ir
-6.856909986 -22.964125377 -2.174779854    Ir
1.376708963 -8.719267552 2.174235954    Ir
-10.970642069 -20.582019118 -2.192673143    Ir
-5.502696828 -20.588440244 -2.193390930    Ir
-4.122646838 -18.213174194 -2.192447245    Ir
-0.000705523 -11.083600919 2.185401281    Ir
-8.231037198 -25.344649231 2.162799752    Ir
-2.728386904 -15.834772971 6.540373730    Ir
-5.499937463 -19.010015920 8.715904444    Ir
-2.736835041 -18.992029765 8.707059907    Ir
-6.860608998 -16.635346877 8.695300875    Ir
-12.340532239 -21.399760181 0.004876220    Ir
-15.101637161 -30.893375644 4.316015541    Ir
-15.072983610 -26.128461476 4.335945076    Ir
-9.616392998 -26.153264259 4.381776040    Ir
-15.090552439 -27.726797088 2.182776818    Ir
-12.342699986 -27.716035377 2.178720146    Ir
-4.109081037 -13.471177552 6.527735954    Ir
-16.456432069 -25.333929118 2.160826857    Ir
-10.988431965 -25.340302705 2.160152632    Ir
-9.608436838 -22.965084194 2.161052755    Ir
-5.486495523 -15.835510919 6.538901281    Ir
-13.716827198 -30.096559231 6.516299752    Ir
-8.214176904 -20.586682971 10.893873730    Ir
-8.226914433 -9.512964678 -0.022361085    Ru
-5.484726743 -14.245135215 4.328458841    Ru
-9.587377634 -11.870847610 -4.345754498    Ru
-6.857630778 -11.877960621 -4.369151669    Ru
-8.232617287 -9.513214110 -4.338327403    Ru
-16.476918368 -19.018779370 4.338178022    Ru
-8.217439220 -14.254532560 -0.007226711    Ru
-5.480590166 -23.751242286 0.016191208    Ru
-6.865089561 -11.882926773 0.008564573    Ru
-12.352690639 -13.479315038 -2.173412904    Ru
-8.218039910 -11.078891154 -2.192156309    Ru
-6.872714877 -8.724490897 -2.186298226    Ru
-6.849744439 -13.454778354 2.167798946    Ru
-9.594399723 -8.719518475 -2.178709155    Ru
-10.988289102 -15.846764630 -2.171533430    Ru
-8.235117175 -15.844697500 -2.172586807    Ru
-13.712704434 -14.264874678 4.331138915    Ru
-10.970516743 -18.997045215 8.681958841    Ru
-15.073167634 -16.622757610 0.007745502    Ru
-12.343420778 -16.629870621 -0.015651669    Ru
-13.718407287 -14.265124110 0.015172597    Ru
-10.991128368 -14.266869370 -0.015321978    Ru
-13.703229220 -19.006442560 4.346273289    Ru
-10.966380166 -28.503152286 4.369691208    Ru
-12.350879561 -16.634836773 4.362064573    Ru
-17.838480639 -18.231225038 2.180087096    Ru
-13.703829910 -15.830801154 2.161343691    Ru
-12.358504877 -13.476400897 2.167201774    Ru
-12.335534439 -18.206688354 6.521298946    Ru
-15.080189723 -13.471428475 2.174790845    Ru
-16.474079102 -20.598674630 2.181966570    Ru
-13.720907175 -20.596607500 2.180913193    Ru
-13.713254434 -14.266814678 -4.378571085    Ru
-10.971066743 -18.998985215 -0.027751159    Ru
-4.101037634 -7.116997610 0.010455502    Ru
-1.371290778 -7.124110621 -0.012941669    Ru
-2.746277287 -4.759364110 0.017882597    Ru
-10.990578368 -14.264929370 8.694388022    Ru
-2.731099220 -9.500682560 4.348983289    Ru
0.005749834 -18.997392286 4.372401208    Ru
-12.351429561 -16.636776773 -4.347645427    Ru
-6.866350639 -8.725465038 2.182797096    Ru
-2.731699910 -6.325041154 2.164053691    Ru
-1.386374877 -3.970640897 2.169911774    Ru
-12.336084439 -18.208628354 -2.188411054    Ru
-4.108059723 -3.965668475 2.177500845    Ru
-5.501949102 -11.092914630 2.184676570    Ru
-2.748777175 -11.090847500 2.183623193    Ru
-2.742144433 -14.263074678 4.331798915    Ru
0.000043257 -18.995245215 8.682618841    Ru
-4.102607634 -16.620957610 0.008405502    Ru
-1.372860778 -16.628070621 -0.014991669    Ru
-2.747847287 -14.263324110 0.015832597    Ru
-10.992148368 -23.768889370 8.692338022    Ru
-2.732669220 -19.004642560 4.346933288    Ru
-5.479020166 -14.247282286 0.018241208    Ru
-1.380319561 -16.633036773 4.362724573    Ru
-6.867920639 -18.229425038 2.180747096    Ru
-2.733269910 -15.829001154 2.162003691    Ru
-1.387944877 -13.474600897 2.167861774    Ru
-1.364974439 -18.204888354 6.521958946    Ru
-4.109629723 -13.469628475 2.175450845    Ru
-5.503519102 -20.596874630 2.182626570    Ru
-2.750347175 -20.594807500 2.181573193    Ru
-19.199044433 -19.018724678 -0.025071085    Ru
-16.456856743 -23.750895215 4.325748841    Ru
-9.586827634 -11.868907610 4.363955502    Ru
-6.857080778 -11.876020621 4.340558331    Ru
-8.232067287 -9.511274110 4.371382597    Ru
-5.504788368 -9.513019370 4.340888022    Ru
-8.216889221 -14.252592560 8.702483289    Ru
-5.480040166 -23.749302286 8.725901208    Ru
-17.837219561 -21.388686773 0.005854573    Ru
-12.352140639 -13.477375038 6.536297096    Ru
-8.217489910 -11.076951154 6.517553691    Ru
-6.872164877 -8.722550897 6.523411774    Ru
-17.821874439 -22.960538354 2.165088946    Ru
-9.593849723 -8.717578475 6.531000845    Ru
-10.987739102 -15.844824630 6.538176570    Ru
-8.234567175 -15.842757500 6.537123193    Ru
-8.227934433 -19.014984678 8.685298915    Ru
-5.485746743 -23.747155215 13.036118840    Ru
-9.588397634 -21.372867610 4.361905502    Ru
-6.858650778 -21.379980621 4.338508331    Ru
-8.233637287 -19.015234110 4.369332597    Ru
-5.506358368 -19.016979370 4.338838022    Ru
-8.218459220 -23.756552560 8.700433289    Ru
-10.964810166 -18.999192286 4.371741208    Ru
-6.866109561 -21.384946773 8.716224573    Ru
-12.353710639 -22.981335038 6.534247096    Ru
-8.219059910 -20.580911154 6.515503691    Ru
-6.873734877 -18.226510897 6.521361774    Ru
-6.850764439 -22.956798354 10.875458946    Ru
-9.595419723 -18.221538475 6.528950845    Ru
-10.989309102 -25.348784630 6.536126570    Ru
-8.236137175 -25.346717500 6.535073193    Ru
-8.228484434 -19.016924678 -0.024411085    Ru
-5.486296744 -23.749095215 4.326408841    Ru
1.383732366 -11.867107610 4.364615502    Ru
-6.859200778 -21.381920621 -4.371201669    Ru
-8.234187287 -19.017174110 -4.340377403    Ru
-16.478488368 -28.522739370 4.336128022    Ru
-8.219009220 -23.758492560 -0.009276712    Ru
-10.965360166 -19.001132286 -4.337968792    Ru
-6.866659561 -21.386886773 0.006514573    Ru
-1.381580639 -13.475575038 6.536957096    Ru
-8.219609910 -20.582851154 -2.194206309    Ru
-6.874284877 -18.228450897 -2.188348226    Ru
-6.851314439 -22.958738354 2.165748946    Ru
-9.595969723 -18.223478475 -2.180759155    Ru
-0.017179102 -15.843024630 6.538836570    Ru
-8.236687175 -25.348657500 -2.174636807    Ru
-13.714274434 -23.768834678 4.329088915    Ru
-10.972086744 -28.501005215 8.679908840    Ru
-4.102057634 -16.619017610 8.718115502    Ru
-12.344990778 -26.133830621 -0.017701669    Ru
-13.719977287 -23.769084110 0.013122597    Ru
-10.992698368 -23.770829370 -0.017371978    Ru
-13.704799220 -28.510402560 4.344223289    Ru
-16.451150166 -23.753042286 0.015531208    Ru
-12.352449561 -26.138796773 4.360014573    Ru
-6.867370639 -18.227485038 10.890457096    Ru
-13.705399910 -25.334761154 2.159293691    Ru
-12.360074877 -22.980360897 2.165151774    Ru
-12.337104439 -27.710648354 6.519248946    Ru
-15.081759723 -22.975388475 2.172740845    Ru
-5.502969102 -20.594934630 10.892336570    Ru
-13.722477175 -30.100567500 2.178863193    Ru
