title                                   
   1.00000000000000     
    -3.8701240041932325   -7.7397924832054059    7.7400649015905119
    -3.8701240041932325    7.7397924832054059   -7.7400649015905119
     0.0000000000000000   -7.7416212506346094   -7.7418937055539185
   Ir   Ru
    60     4
Direct
  0.1248700796647944  0.8751299203352059  0.7498076777283562
  0.3748878130645811  0.6251121869354186  0.7502868743823137
  0.2504052458760291  0.7495947541239707  0.5003043067057249
  0.1248386930521034  0.8751613069478967  0.2501979861452983
  0.6251760570927890  0.3748239429072111  0.7502989817054998
  0.5001605466221841  0.4998394533778159  0.4998443527534652
  0.2500809736432579  0.7499190263567418 -0.0003652349032916
  0.8750633810472043  0.1249366189527956  0.7498054063314261
  0.7495786625988247  0.2504213374011755  0.4998786522952053
  0.5001679265803518  0.4998320734196482  0.0001365515834669
 -0.0001452546377036  0.0001452546377036 -0.0003138736618762
  0.7498990087559304  0.2501009912440696  0.0000959191247144
  0.1245202291588763  0.8754797708411236  0.4994494858699683
  0.3751476390977250  0.6248523609022753  0.4986487044250270
  0.2505024998675032  0.7494975001324971  0.2501435746391987
  0.1248871478644595  0.8751128521355407  0.0005540114989112
  0.6248795148416461  0.3751204851583539  0.4986961481763464
  0.4999615642070883  0.5000384357929121  0.2502422040938881
 -0.0005605281047636  0.0005605281047636  0.2510233613466404
  0.3750544321563550  0.6249455678436450  0.0013886523296320
  0.2500948973381611  0.7499051026618386  0.7498342531103943
  0.8754723317442932  0.1245276682557067  0.4985347662534392
  0.7500764725683349  0.2499235274316655  0.2501391143399903
  0.6249774302141130  0.3750225697858872  0.0013508106868646
  0.4999712722611578  0.5000287277388423  0.7497563016765699
 -0.0001254161515140  0.0001254161515140  0.7489520237709812
  0.8750802400102874  0.1249197599897128  0.0014469674132436
  0.7500580219991668  0.2499419780008331  0.7498368138710981
  0.9375221604733741  0.5626272585933835  0.6245291044362355
  0.1868051072875834  0.3113816251642446  0.6239836343727798
  0.0628414264631043  0.4367811804094924  0.3739476687656643
  0.9364156833370519  0.5617539219132279  0.1258949780781170
  0.4373727414066167  0.0624778395266259  0.6245291044362355
  0.3123377182769221  0.1876405964235551  0.3747682828569055
  0.8123594035764449  0.6876622817230776  0.3747682828569055
  0.1871969864151362  0.3129843709863007  0.1263587433260813
  0.0623683060481508  0.4371462667235360  0.8753565824848700
  0.6886183748357553  0.8131948927124165  0.6239836343727798
  0.5632188195905075  0.9371585735368954  0.3739476687656643
  0.4382460780867720  0.0635843166629483  0.1258949780781170
  0.3124184872349137  0.1875998114404242  0.8751652825184983
  0.8124001885595760  0.6875815127650859  0.8751652825184983
  0.6870156290136992  0.8128030135848640  0.1263587433260813
  0.5628537332764640  0.9376316939518493  0.8753565824848700
  0.8131762012552503  0.6888137533535412  0.6240506685276751
  0.0624632575409340  0.4371617614344464  0.6244569868452869
  0.9365319569297953  0.5618969391971345  0.3743806306755993
  0.8116784339094529  0.6865901432466799  0.1259075497587682
  0.3111862466464592  0.1868237987447495  0.6240506685276751
  0.1864392530773519  0.3118382003865755  0.3743337508130692
  0.6881617996134247  0.8135607469226480  0.3743337508130692
  0.0629686512610536  0.4369203452202022  0.1263473310225214
  0.9376236504778864  0.5626441045066286  0.8752749219757184
  0.5628382385655535  0.9375367424590660  0.6244569868452869
  0.4381030608028659  0.0634680430702049  0.3743806306755993
  0.3134098567533201  0.1883215660905470  0.1259075497587682
  0.1875617861153161  0.3125794799682081  0.8752479609841196
  0.6874205200317920  0.8124382138846838  0.8752479609841196
  0.5630796547797978  0.9370313487389466  0.1263473310225214
  0.4373558954933713  0.0623763495221134  0.8752749219757184
 -0.0001572876476432  0.0001572876476432  0.5004610868294763
  0.3744686602700255  0.6255313397299745  0.2496679359173353
  0.6252179628411620  0.3747820371588378  0.2496741413852091
  0.8755004749675226  0.1244995250324773  0.2502138872916640
 
  0.00000000E+00  0.00000000E+00  0.00000000E+00
  0.00000000E+00  0.00000000E+00  0.00000000E+00
  0.00000000E+00  0.00000000E+00  0.00000000E+00
  0.00000000E+00  0.00000000E+00  0.00000000E+00
  0.00000000E+00  0.00000000E+00  0.00000000E+00
  0.00000000E+00  0.00000000E+00  0.00000000E+00
  0.00000000E+00  0.00000000E+00  0.00000000E+00
  0.00000000E+00  0.00000000E+00  0.00000000E+00
  0.00000000E+00  0.00000000E+00  0.00000000E+00
  0.00000000E+00  0.00000000E+00  0.00000000E+00
  0.00000000E+00  0.00000000E+00  0.00000000E+00
  0.00000000E+00  0.00000000E+00  0.00000000E+00
  0.00000000E+00  0.00000000E+00  0.00000000E+00
  0.00000000E+00  0.00000000E+00  0.00000000E+00
  0.00000000E+00  0.00000000E+00  0.00000000E+00
  0.00000000E+00  0.00000000E+00  0.00000000E+00
  0.00000000E+00  0.00000000E+00  0.00000000E+00
  0.00000000E+00  0.00000000E+00  0.00000000E+00
  0.00000000E+00  0.00000000E+00  0.00000000E+00
  0.00000000E+00  0.00000000E+00  0.00000000E+00
  0.00000000E+00  0.00000000E+00  0.00000000E+00
  0.00000000E+00  0.00000000E+00  0.00000000E+00
  0.00000000E+00  0.00000000E+00  0.00000000E+00
  0.00000000E+00  0.00000000E+00  0.00000000E+00
  0.00000000E+00  0.00000000E+00  0.00000000E+00
  0.00000000E+00  0.00000000E+00  0.00000000E+00
  0.00000000E+00  0.00000000E+00  0.00000000E+00
  0.00000000E+00  0.00000000E+00  0.00000000E+00
  0.00000000E+00  0.00000000E+00  0.00000000E+00
  0.00000000E+00  0.00000000E+00  0.00000000E+00
  0.00000000E+00  0.00000000E+00  0.00000000E+00
  0.00000000E+00  0.00000000E+00  0.00000000E+00
  0.00000000E+00  0.00000000E+00  0.00000000E+00
  0.00000000E+00  0.00000000E+00  0.00000000E+00
  0.00000000E+00  0.00000000E+00  0.00000000E+00
  0.00000000E+00  0.00000000E+00  0.00000000E+00
  0.00000000E+00  0.00000000E+00  0.00000000E+00
  0.00000000E+00  0.00000000E+00  0.00000000E+00
  0.00000000E+00  0.00000000E+00  0.00000000E+00
  0.00000000E+00  0.00000000E+00  0.00000000E+00
  0.00000000E+00  0.00000000E+00  0.00000000E+00
  0.00000000E+00  0.00000000E+00  0.00000000E+00
  0.00000000E+00  0.00000000E+00  0.00000000E+00
  0.00000000E+00  0.00000000E+00  0.00000000E+00
  0.00000000E+00  0.00000000E+00  0.00000000E+00
  0.00000000E+00  0.00000000E+00  0.00000000E+00
  0.00000000E+00  0.00000000E+00  0.00000000E+00
  0.00000000E+00  0.00000000E+00  0.00000000E+00
  0.00000000E+00  0.00000000E+00  0.00000000E+00
  0.00000000E+00  0.00000000E+00  0.00000000E+00
  0.00000000E+00  0.00000000E+00  0.00000000E+00
  0.00000000E+00  0.00000000E+00  0.00000000E+00
  0.00000000E+00  0.00000000E+00  0.00000000E+00
  0.00000000E+00  0.00000000E+00  0.00000000E+00
  0.00000000E+00  0.00000000E+00  0.00000000E+00
  0.00000000E+00  0.00000000E+00  0.00000000E+00
  0.00000000E+00  0.00000000E+00  0.00000000E+00
  0.00000000E+00  0.00000000E+00  0.00000000E+00
  0.00000000E+00  0.00000000E+00  0.00000000E+00
  0.00000000E+00  0.00000000E+00  0.00000000E+00
  0.00000000E+00  0.00000000E+00  0.00000000E+00
  0.00000000E+00  0.00000000E+00  0.00000000E+00
  0.00000000E+00  0.00000000E+00  0.00000000E+00
  0.00000000E+00  0.00000000E+00  0.00000000E+00
