title                                   
   1.00000000000000     
     3.8268842482841352    0.0000000000000000    0.0000000000000000
     0.0000000000000000    3.8268842482841352    0.0000000000000000
     0.0000000000000000    0.0000000000000000    3.8268842482841352
   Ir   Ru
     1     3
Direct
  0.0000000000000000  0.0000000000000000  0.0000000000000000
  0.0000000000000000  0.5000000000000000  0.5000000000000000
  0.5000000000000000  0.0000000000000000  0.5000000000000000
  0.5000000000000000  0.5000000000000000  0.0000000000000000
 
  0.00000000E+00  0.00000000E+00  0.00000000E+00
  0.00000000E+00  0.00000000E+00  0.00000000E+00
  0.00000000E+00  0.00000000E+00  0.00000000E+00
  0.00000000E+00  0.00000000E+00  0.00000000E+00
