title
1.
3.935049000 0.000000000 0.000000000
0.000000000 3.935049000 0.000000000
0.000000000 0.000000000 3.935049000
1 3
Cartesian
0.000000000 0.000000000 0.000000000    Ir
0.000000000 1.967524500 1.967524500    Ru
1.967524500 0.000000000 1.967524500    Ru
1.967524500 1.967524500 0.000000000    Ru
