title
1.
-0.000110000 9.529500000 26.738460000
-0.000110000 9.529500000 -26.738460000
-13.754770000 -4.764600000 0.000000000
480
Cartesian
-13.754999235 -1.587988820 5.570378808    Ir
-11.003740764 6.353008820 -18.941346808    Ir
-11.004034236 -1.588018820 5.571893987    Ir
-9.628634235 5.559091180 -21.168794218    Ir
-12.379599235 5.559121180 -21.167368167    Ir
-13.754705764 6.353038820 -18.938450141    Ir
-12.379140765 -0.794101180 7.800098987    Ir
-1.375335764 3.970528820 7.798806628    Ir
-8.253179235 7.941451180 -16.711537500    Ir
-5.501810765 6.352948820 -14.483332500    Ir
-5.502214236 7.941421180 -16.711537500    Ir
-4.126704236 5.559031180 -16.711537500    Ir
-6.877669235 5.559061180 -16.711537500    Ir
-8.252775764 6.352978820 -14.483332500    Ir
-6.877320764 8.735338820 -14.483332500    Ir
-9.628285764 8.735368820 -14.483332500    Ir
-5.502159235 3.176671180 10.026922500    Ir
-2.750900765 11.117668820 -14.483332500    Ir
-2.751194235 3.176641180 10.026922500    Ir
-1.375794236 10.323751180 -16.711537500    Ir
-4.126759236 10.323781180 -16.711537500    Ir
-5.501865764 11.117698820 -14.483332500    Ir
-4.126300764 3.970558820 12.255127500    Ir
-6.877265764 3.970588820 12.255127500    Ir
-13.755109235 7.941511180 -16.711537500    Ir
-10.970454088 6.353008457 -14.483332500    Ir
-11.004144236 7.941481180 -16.711537500    Ir
-9.628634235 5.559091180 -16.644869606    Ir
-12.379599235 5.559121180 -16.711537500    Ir
-13.754705764 6.353038820 -14.483332500    Ir
-12.379306554 8.802105321 -14.483332500    Ir
-1.375335764 3.970528820 12.255127500    Ir
-8.253179235 7.941451180 -12.255127500    Ir
-5.401840696 6.352947730 -10.026922500    Ir
-5.502214236 7.941421180 -12.255127500    Ir
-4.126704236 5.559031180 -12.155125660    Ir
-6.877669235 5.559061180 -12.255127500    Ir
-8.252775764 6.352978820 -10.026922500    Ir
-6.877320764 8.735338820 -10.026922500    Ir
-9.628285764 8.735368820 -10.026922500    Ir
-2.751249236 7.941391180 -12.255127500    Ir
-13.621339001 1.588287367 -10.026922500    Ir
-13.755054235 3.176761180 -12.255127500    Ir
-12.379544235 0.794371180 -12.255127500    Ir
-1.375739236 5.559001180 -12.255127500    Ir
-2.750845765 6.352918820 -10.026922500    Ir
-1.375392688 8.901949775 -10.026922500    Ir
-4.126355764 8.735308820 -10.026922500    Ir
-11.004089235 3.176731180 14.483332500    Ir
-8.086177305 11.117727003 -10.026922500    Ir
-8.253124235 3.176701180 14.483332500    Ir
-6.877724236 10.323811180 -12.255127500    Ir
-9.628689235 10.323841180 -12.255127500    Ir
-11.003795764 11.117758820 -10.026922500    Ir
-9.628230764 3.970618820 16.711537500    Ir
-12.379195764 3.970648820 16.711537500    Ir
-5.502269236 12.706171180 -12.255127500    Ir
-2.550905609 11.117666639 -10.026922500    Ir
-2.751304236 12.706141180 -12.255127500    Ir
-1.375794236 10.323751180 -12.055123819    Ir
-4.126759236 10.323781180 -12.255127500    Ir
-5.501865764 11.117698820 -10.026922500    Ir
-4.126410765 13.500058820 -10.026922500    Ir
-6.877265764 3.970588820 16.711537500    Ir
-13.755109235 7.941511180 -12.255127500    Ir
-11.003740764 6.353008820 -10.026922500    Ir
-11.004144236 7.941481180 -12.255127500    Ir
-9.628634235 5.559091180 -12.421797234    Ir
-12.379599235 5.559121180 -12.255127500    Ir
-13.754705764 6.353038820 -10.026922500    Ir
-12.379276351 8.568775513 -10.026922500    Ir
-1.375445765 13.500028820 -10.026922500    Ir
-11.004089235 3.176731180 -7.798717500    Ir
-8.252720764 1.588228820 -5.570512500    Ir
-8.253124235 3.176701180 -7.798717500    Ir
-6.877614236 0.794311180 -7.798717500    Ir
-9.628579235 0.794341180 -7.798717500    Ir
-11.003685764 1.588258820 -5.570512500    Ir
-9.628284245 3.837301116 -5.570512500    Ir
-12.379195764 3.970648820 -5.570512500    Ir
-8.253179235 7.941451180 -7.798717500    Ir
-5.635177548 6.352950275 -5.570512500    Ir
-5.502214236 7.941421180 -7.798717500    Ir
-4.126704236 5.559031180 -7.932053287    Ir
-6.877669235 5.559061180 -7.798717500    Ir
-8.252775764 6.352978820 -5.570512500    Ir
-6.877374245 8.602021116 -5.570512500    Ir
-9.628285764 8.735368820 -5.570512500    Ir
-2.751249236 7.941391180 -7.798717500    Ir
-13.754650764 1.588288820 -5.570512500    Ir
-13.755054235 3.176761180 -7.798717500    Ir
-12.379544235 0.794371180 -7.798717500    Ir
-1.375739236 5.559001180 -7.798717500    Ir
-2.750845765 6.352918820 -5.570512500    Ir
-1.375390765 8.735278820 -5.570512500    Ir
-4.126355764 8.735308820 -5.570512500    Ir
-11.004089235 3.176731180 18.939742500    Ir
-8.352855852 11.117729911 -5.570512500    Ir
-8.253234236 12.706201180 -7.798717500    Ir
-6.877724236 10.323811180 -7.898719340    Ir
-9.628689235 10.323841180 -7.798717500    Ir
-11.003795764 11.117758820 -5.570512500    Ir
-9.628340765 13.500118820 -5.570512500    Ir
-12.379195764 3.970648820 21.167947500    Ir
-5.502269236 12.706171180 -7.798717500    Ir
-2.750900765 11.117668820 -5.570512500    Ir
-2.751304236 12.706141180 -7.798717500    Ir
-1.375794236 10.323751180 -7.865385394    Ir
-4.126759236 10.323781180 -7.798717500    Ir
-5.501865764 11.117698820 -5.570512500    Ir
-4.126437505 13.433399968 -5.570512500    Ir
-6.877375764 13.500088820 -5.570512500    Ir
-13.755109235 7.941511180 -7.798717500    Ir
-11.003740764 6.353008820 -5.570512500    Ir
-11.004144236 7.941481180 -7.798717500    Ir
-9.628634235 5.559091180 -7.798717500    Ir
-12.379599235 5.559121180 -7.798717500    Ir
-13.754705764 6.353038820 -5.570512500    Ir
-12.379250765 8.735398820 -5.570512500    Ir
-1.375445765 13.500028820 -5.570512500    Ir
-2.751249236 7.941391180 18.939742500    Ir
-13.788102460 11.117789184 -5.570512500    Ir
-13.755054235 3.176761180 18.939742500    Ir
-12.379654236 10.323871180 -7.798717500    Ir
-1.375849236 15.088501180 -7.798717500    Ir
-2.750955765 15.882418820 -5.570512500    Ir
-1.375390765 8.735278820 21.167947500    Ir
-4.126355764 8.735308820 21.167947500    Ir
-11.004089235 3.176731180 -3.342307500    Ir
-8.252720764 1.588228820 -1.114102500    Ir
-8.253124235 3.176701180 -3.342307500    Ir
-6.877614236 0.794311180 -3.342307500    Ir
-9.628579235 0.794341180 -3.342307500    Ir
-11.003685764 1.588258820 -1.114102500    Ir
-9.628230764 3.970618820 -1.114102500    Ir
-12.379195764 3.970648820 -1.114102500    Ir
-5.502159235 3.176671180 -3.342307500    Ir
-2.717504088 1.588168457 -1.114102500    Ir
-2.751194235 3.176641180 -3.342307500    Ir
-1.375684236 0.794251180 -3.308973553    Ir
-4.126649235 0.794281180 -3.342307500    Ir
-5.501755764 1.588198820 -1.114102500    Ir
-4.126300764 3.970558820 -1.114102500    Ir
-6.877265764 3.970588820 -1.114102500    Ir
-8.253179235 7.941451180 -3.342307500    Ir
-5.435182392 6.352948094 -1.114102500    Ir
-5.502214236 7.941421180 -3.342307500    Ir
-4.126704236 5.559031180 -3.275639606    Ir
-6.877669235 5.559061180 -3.342307500    Ir
-8.252775764 6.352978820 -1.114102500    Ir
-6.877376554 8.802045321 -1.114102500    Ir
-9.628285764 8.735368820 -1.114102500    Ir
-2.751249236 7.941391180 -3.342307500    Ir
-13.754650764 1.588288820 -1.114102500    Ir
-13.755054235 3.176761180 -3.342307500    Ir
-12.379544235 0.794371180 -3.342307500    Ir
-1.375739236 5.559001180 -3.342307500    Ir
-2.750845765 6.352918820 -1.114102500    Ir
-1.375419429 8.835290923 -1.114102500    Ir
-4.126355764 8.735308820 -1.114102500    Ir
-11.004199235 12.706231180 -3.342307500    Ir
-8.152860696 11.117727730 -1.114102500    Ir
-8.253234236 12.706201180 -3.342307500    Ir
-6.877724236 10.323811180 -3.342307500    Ir
-9.628689235 10.323841180 -3.342307500    Ir
-11.003795764 11.117758820 -1.114102500    Ir
-9.628340765 13.500118820 -1.114102500    Ir
-12.379305764 13.500148820 -1.114102500    Ir
-5.502269236 12.706171180 -3.342307500    Ir
-2.617589001 11.117667367 -1.114102500    Ir
-2.751304236 12.706141180 -3.342307500    Ir
-1.375794236 10.323751180 -3.208971713    Ir
-4.126759236 10.323781180 -3.342307500    Ir
-5.501865764 11.117698820 -1.114102500    Ir
-4.126439814 13.633424173 -1.114102500    Ir
-6.877375764 13.500088820 -1.114102500    Ir
-13.755109235 7.941511180 -3.342307500    Ir
-11.003740764 6.353008820 -1.114102500    Ir
-11.004144236 7.941481180 -3.342307500    Ir
-9.628634235 5.559091180 -3.342307500    Ir
-12.379599235 5.559121180 -3.342307500    Ir
-13.754705764 6.353038820 -1.114102500    Ir
-12.379250765 8.735398820 -1.114102500    Ir
-1.375445765 13.500028820 -1.114102500    Ir
-8.253069235 -1.588048820 -3.342307500    Ir
-5.501920765 15.882448820 -1.114102500    Ir
-5.502214236 7.941421180 23.396152500    Ir
-4.126814236 15.088531180 -3.175637766    Ir
-6.877779236 15.088561180 -3.342307500    Ir
-8.252775764 6.352978820 25.624357500    Ir
-6.877212688 -0.627490225 -1.114102500    Ir
-9.628175764 -0.794131180 -1.114102500    Ir
-2.751249236 7.941391180 23.396152500    Ir
-13.754760764 11.117788820 -1.114102500    Ir
-13.755164236 12.706261180 -3.342307500    Ir
-12.379654236 10.323871180 -3.342307500    Ir
-1.375849236 15.088501180 -3.342307500    Ir
-2.817639156 15.882419548 -1.114102500    Ir
-1.375444630 8.635314366 25.624357500    Ir
-4.126245764 -0.794191180 -1.114102500    Ir
-11.004089235 3.176731180 1.114102500    Ir
-8.352745852 1.588229911 3.342307500    Ir
-8.253124235 3.176701180 1.114102500    Ir
-6.877614236 0.794311180 1.114102500    Ir
-9.628579235 0.794341180 1.114102500    Ir
-11.003685764 1.588258820 3.342307500    Ir
-9.628230764 3.970618820 3.342307500    Ir
-12.379195764 3.970648820 3.342307500    Ir
-5.502159235 3.176671180 1.114102500    Ir
-2.750790764 1.588168820 3.342307500    Ir
-2.751194235 3.176641180 1.114102500    Ir
-1.375684236 0.794251180 1.047434606    Ir
-4.126649235 0.794281180 1.114102500    Ir
-5.501755764 1.588198820 3.342307500    Ir
-4.126327505 3.903899968 3.342307500    Ir
-6.877265764 3.970588820 3.342307500    Ir
-13.754999235 -1.587988820 1.114102500    Ir
-11.070424156 6.353009548 -23.396152500    Ir
-11.004034236 -1.588018820 1.114102500    Ir
-9.628744236 15.088591180 1.114102500    Ir
-12.379599235 5.559121180 -25.624357500    Ir
-13.754595764 -3.176461180 3.342307500    Ir
-12.379140765 -0.794101180 3.342307500    Ir
-1.375335764 3.970528820 3.342307500    Ir
-8.253179235 7.941451180 1.114102500    Ir
-5.501810765 6.352948820 3.342307500    Ir
-5.502214236 7.941421180 1.114102500    Ir
-4.126704236 5.559031180 1.080768553    Ir
-6.877669235 5.559061180 1.114102500    Ir
-8.252775764 6.352978820 3.342307500    Ir
-6.877347890 8.702033218 3.342307500    Ir
-9.628285764 8.735368820 3.342307500    Ir
-2.751249236 7.941391180 1.114102500    Ir
-13.787992460 1.588289184 3.342307500    Ir
-13.755054235 3.176761180 1.114102500    Ir
-12.379544235 0.794371180 1.114102500    Ir
-1.375739236 5.559001180 1.114102500    Ir
-2.750845765 6.352918820 3.342307500    Ir
-1.375390765 8.735278820 3.342307500    Ir
-4.126355764 8.735308820 3.342307500    Ir
-11.004199235 12.706231180 1.114102500    Ir
-8.252830765 11.117728820 3.342307500    Ir
-8.253234236 12.706201180 1.114102500    Ir
-6.877724236 10.323811180 1.114102500    Ir
-9.628689235 10.323841180 1.114102500    Ir
-11.003795764 11.117758820 3.342307500    Ir
-9.628340765 13.500118820 3.342307500    Ir
-12.379305764 13.500148820 3.342307500    Ir
-5.502269236 12.706171180 1.114102500    Ir
-2.750900765 11.117668820 3.342307500    Ir
-2.751304236 12.706141180 1.114102500    Ir
-1.375794236 10.323751180 1.114102500    Ir
-4.126759236 10.323781180 1.114102500    Ir
-5.501865764 11.117698820 3.342307500    Ir
-4.126410765 13.500058820 3.342307500    Ir
-6.877375764 13.500088820 3.342307500    Ir
-13.755109235 7.941511180 1.114102500    Ir
-11.003740764 6.353008820 3.342307500    Ir
-11.004144236 7.941481180 1.114102500    Ir
-9.628634235 5.559091180 1.147436447    Ir
-12.379599235 5.559121180 1.114102500    Ir
-13.754705764 6.353038820 3.342307500    Ir
-12.379306169 8.768752071 3.342307500    Ir
-1.375445765 13.500028820 3.342307500    Ir
-8.253069235 -1.588048820 1.114102500    Ir
-5.468634088 15.882448457 3.342307500    Ir
-5.502214236 7.941421180 -25.624357500    Ir
-4.126814236 15.088531180 1.147436447    Ir
-6.877779236 15.088561180 1.114102500    Ir
-8.252775764 6.352978820 -23.396152500    Ir
-6.877210764 -0.794161180 3.342307500    Ir
-9.628175764 -0.794131180 3.342307500    Ir
-2.751359236 17.470891180 1.114102500    Ir
-13.754760764 11.117788820 3.342307500    Ir
-13.755164236 12.706261180 1.114102500    Ir
-12.379654236 10.323871180 1.114102500    Ir
-1.375849236 15.088501180 1.114102500    Ir
-2.750955765 15.882418820 3.342307500    Ir
-1.375446554 8.801985321 -23.396152500    Ir
-4.126355764 8.735308820 -23.396152500    Ir
-11.004089235 3.176731180 5.570512500    Ir
-8.186092392 1.588228094 7.798717500    Ir
-8.253124235 3.176701180 5.570512500    Ir
-6.877614236 0.794311180 5.637180394    Ir
-9.628579235 0.794341180 5.570512500    Ir
-11.003685764 1.588258820 7.798717500    Ir
-9.628230764 3.970618820 7.798717500    Ir
-12.379195764 3.970648820 7.798717500    Ir
-5.502159235 3.176671180 5.570512500    Ir
-2.750900765 11.117668820 -18.939742500    Ir
-2.751194235 3.176641180 5.570512500    Ir
-1.375794236 10.323751180 -21.167947500    Ir
-4.126649235 0.794281180 5.570512500    Ir
-5.501755764 1.588198820 7.798717500    Ir
-4.126329429 4.070570923 7.798717500    Ir
-6.877265764 3.970588820 7.798717500    Ir
-8.253179235 7.941451180 5.570512500    Ir
-5.401840696 6.352947730 7.798717500    Ir
-5.502214236 7.941421180 5.570512500    Ir
-4.126704236 5.559031180 5.670514340    Ir
-6.877669235 5.559061180 5.570512500    Ir
-8.252775764 6.352978820 7.798717500    Ir
-6.877320764 8.735338820 7.798717500    Ir
-9.628285764 8.735368820 7.798717500    Ir
-2.751249236 7.941391180 5.570512500    Ir
-13.754650764 1.588288820 7.798717500    Ir
-13.755054235 3.176761180 5.570512500    Ir
-12.379544235 0.794371180 5.570512500    Ir
-1.375739236 5.559001180 5.570512500    Ir
-2.750845765 6.352918820 7.798717500    Ir
-1.375390765 8.735278820 7.798717500    Ir
-4.126355764 8.735308820 7.798717500    Ir
-11.004199235 12.706231180 5.570334244    Ir
-8.250134819 11.117728791 7.798717500    Ir
-8.253234236 12.706201180 5.568863628    Ir
-6.881135432 10.323811217 5.570512500    Ir
-9.628689235 10.323841180 5.569532090    Ir
-11.004455996 11.117758828 7.798717500    Ir
-9.628230764 3.970618820 -18.937959936    Ir
-12.376774915 3.970648794 -18.939742500    Ir
-5.502269236 12.706171180 5.569041885    Ir
-2.753651730 11.117668850 7.798717500    Ir
-2.751304236 12.706141180 5.572384192    Ir
-1.372603116 10.323751145 5.570512500    Ir
-4.126759236 10.323781180 5.570289679    Ir
-5.501865764 11.117698820 7.798717500    Ir
-4.126410765 13.500058820 7.798806628    Ir
-6.877100668 13.500088817 7.798717500    Ir
-13.755109235 7.941511180 5.569888603    Ir
-11.004043242 6.341906956 7.798717500    Ir
-11.004144236 7.941481180 5.570512500    Ir
-9.628634235 5.559091180 5.570512500    Ir
-12.379599235 5.559121180 5.570512500    Ir
-13.754705764 6.353038820 7.804288012    Ir
-12.340297322 8.754647986 7.787621039    Ir
-1.367688043 13.500028736 7.798717500    Ir
-8.253179235 7.941451180 -21.167947500    Ir
-5.501810765 6.352948820 -18.939742500    Ir
-5.502214236 7.941421180 -21.167947500    Ir
-4.104559018 15.096297479 5.628267574    Ir
-6.866528457 5.613617446 -21.167947500    Ir
-8.252775764 6.352978820 -18.939742500    Ir
-6.877320764 8.735338820 -18.939742500    Ir
-9.628285764 8.735368820 -18.939742500    Ir
-2.751194472 7.963594914 -21.160148782    Ir
-13.697073285 11.140039574 7.837666523    Ir
-13.755054235 3.176761180 -21.167947500    Ir
-12.379654236 10.323871180 5.570512500    Ir
-1.375849236 15.088501180 5.570512500    Ir
-2.750845765 6.352918820 -18.917505014    Ir
-1.367633821 8.802652301 -18.934171988    Ir
-4.087402100 8.735308396 -18.939742500    Ir
-11.004089235 3.176731180 10.026922500    Ir
-8.252720764 1.588228820 12.255127500    Ir
-8.253124235 3.176701180 10.026922500    Ir
-6.855469018 10.331577479 -16.663408272    Ir
-9.622995226 0.833269126 10.026922500    Ir
-11.003685764 1.588258820 12.255127500    Ir
-9.628230764 3.970618820 12.255127500    Ir
-12.379195764 3.970648820 12.255127500    Ir
-8.253124472 7.963654914 10.034721217    Ir
-5.463352402 6.364097916 12.309673958    Ir
-5.502214236 7.941421180 10.026922500    Ir
-4.126704236 5.559031180 10.026922500    Ir
-6.877669235 5.559061180 10.026922500    Ir
-8.252775764 6.352978820 12.277364986    Ir
-6.869563599 8.783462711 12.282890934    Ir
-9.573761638 8.735368226 12.255127500    Ir
-2.751249236 7.941391180 10.026922500    Ir
-13.754650764 1.588288820 12.255127500    Ir
-13.755054235 3.176761180 10.026922500    Ir
-12.357289018 0.802137479 10.055800037    Ir
-1.347927609 5.613557264 10.026922500    Ir
-2.750845765 6.352918820 12.255127500    Ir
-1.375390765 8.735278820 12.255127500    Ir
-4.126355764 8.735308820 12.255127500    Ir
-11.004034280 3.182258289 -16.672588477    Ir
-8.272114901 11.106627163 12.262926218    Ir
-8.253124235 3.176701180 -16.711537500    Ir
-6.877724236 10.323811180 10.026922500    Ir
-9.628689235 10.323841180 10.026922500    Ir
-11.003685764 1.588258820 -14.477761987    Ir
-9.620473710 4.028367506 -14.472236039    Ir
-12.324671638 3.970648226 -14.483332500    Ir
-5.502269236 12.706171180 10.026922500    Ir
-2.750900765 11.117668820 12.255127500    Ir
-2.751304236 12.706141180 10.026922500    Ir
-1.370209866 10.331517661 10.084677574    Ir
-4.104504378 10.362708944 10.026922500    Ir
-5.501865764 11.117698820 12.255127500    Ir
-4.126300764 3.970558820 -14.483332500    Ir
-6.877265764 3.970588820 -14.483332500    Ir
-13.755054280 7.947038289 10.034721217    Ir
-10.936424715 6.358582844 12.294076523    Ir
-11.004144236 7.941481180 10.026922500    Ir
-9.628634235 5.559091180 10.026922500    Ir
-12.379599235 5.559121180 10.026922500    Ir
-13.754705764 6.353038820 12.277364986    Ir
-12.340297656 8.783522371 12.294031959    Ir
-1.305296157 13.500028055 12.255127500    Ir
-2.751249236 7.941391180 -16.711537500    Ir
-13.754650764 1.588288820 -14.483332500    Ir
-13.755054235 3.176761180 -16.711537500    Ir
-12.374069866 10.331637661 10.065425882    Ir
-1.364598457 5.613557446 -16.711537500    Ir
-2.750845765 6.352918820 -14.483332500    Ir
-1.375390765 8.735278820 -14.483332500    Ir
-4.126355764 8.735308820 -14.483332500    Ir
-8.253124280 7.946978289 14.491131217    Ir
-5.453696707 6.380726788 16.766083958    Ir
-5.502214236 7.941421180 14.483332500    Ir
-4.126704236 5.559031180 14.483332500    Ir
-6.877669235 5.559061180 14.483332500    Ir
-8.252775764 6.352978820 16.717108013    Ir
-6.869563377 8.764213121 16.739300934    Ir
-9.573761638 8.735368226 16.711537500    Ir
-2.751249236 7.941391180 14.483332500    Ir
-13.754650764 1.588288820 16.711537500    Ir
-13.755054235 3.176761180 14.483332500    Ir
-12.374069866 10.331637661 -12.216624118    Ir
-1.353484378 5.597928944 14.483332500    Ir
-2.750845765 6.352918820 16.711537500    Ir
-1.375390765 8.735278820 16.711537500    Ir
-4.126355764 8.735308820 16.711537500    Ir
-11.004034280 3.182258289 -12.247328783    Ir
-8.195033285 1.610479574 -9.987973477    Ir
-8.253124235 3.176701180 -12.255127500    Ir
-6.877724236 10.323811180 14.483332500    Ir
-9.628689235 10.323841180 14.483332500    Ir
-11.003685764 1.588258820 -10.021351987    Ir
-9.620473599 4.018742711 -10.021351987    Ir
-12.340242100 3.970648396 -10.026922500    Ir
-5.502159235 3.176671180 -12.255127500    Ir
-2.750900765 11.117668820 16.711537500    Ir
-2.751304236 12.706141180 14.483332500    Ir
-1.370209866 10.331517661 14.521835882    Ir
-4.115618457 10.378337446 14.483332500    Ir
-5.501865764 11.117698820 16.711537500    Ir
-4.126300764 3.970558820 -10.026922500    Ir
-6.877265764 3.970588820 -10.026922500    Ir
-13.755054280 7.947038289 14.491131217    Ir
-10.974883462 6.380786998 16.766083958    Ir
-11.004144236 7.941481180 14.483332500    Ir
-9.628634235 5.559091180 14.483332500    Ir
-12.379599235 5.559121180 14.483332500    Ir
-13.754705764 6.353038820 16.722633961    Ir
-12.355923026 8.773897746 16.733774986    Ir
-1.336382100 3.970528396 -10.026922500    Ir
-8.253179235 7.941451180 18.939742500    Ir
-5.501810765 6.352948820 21.167947500    Ir
-5.502214236 7.941421180 18.939742500    Ir
-4.115535587 5.582378333 18.997497574    Ir
-6.855414378 5.597988944 18.939742500    Ir
-8.252775764 6.352978820 21.167947500    Ir
-6.877320764 8.735338820 21.167947500    Ir
-9.628175764 -0.794131180 -5.570512500    Ir
-5.502131854 3.187773047 -7.775321348    Ir
-2.702731470 1.593743054 -5.531563477    Ir
-2.751194235 3.176641180 -7.798717500    Ir
-1.375794236 10.323751180 18.939742500    Ir
-4.126759236 10.323781180 18.939742500    Ir
-5.501755764 1.588198820 -5.559416039    Ir
-4.102918006 4.009057745 -5.559416039    Ir
-6.822741638 3.970588226 -5.570512500    Ir
-13.754999235 -1.587988820 -7.798717500    Ir
-11.003740764 6.353008820 21.167947500    Ir
-11.004144236 7.941481180 18.939742500    Ir
-9.617465587 5.582438333 18.987871728    Ir
-12.351787609 5.613677264 18.939742500    Ir
-13.754705764 6.353038820 21.167947500    Ir
-12.379140765 -0.794101180 -5.570512500    Ir
-1.375335764 3.970528820 -5.570512500    Ir
-13.754971854 -1.576886953 -3.318911348    Ir
-10.974773462 -3.148713002 -1.059556042    Ir
-11.004034236 -1.588018820 -3.342307500    Ir
-9.628634235 5.559091180 23.396152500    Ir
-12.379599235 5.559121180 23.396152500    Ir
-13.754595764 -3.176461180 -1.091865014    Ir
-12.371382932 -0.803726059 -1.086339066    Ir
-1.383148505 3.970528906 -1.114102500    Ir
