title                                   
   1.00000000000000     
    -3.8247407359430339   -7.6440561419394681    7.6441818632534240
    -3.8247407359430339    7.6440561419394681   -7.6441818632534240
     0.0000000000000000   -7.6470060926218206   -7.6471318316705208
   Ir   Ru
    12    52
Direct
  0.1249216672068072  0.8750783327931928  0.7498375380972071
  0.3749648843796498  0.6250351156203503  0.7502142826407847
  0.2502086152716177  0.7497913847283821  0.5002059864473729
  0.1249180280983544  0.8750819719016456  0.2501568751634570
  0.6250831551335820  0.3749168448664181  0.7502043857608686
  0.5000770642277973  0.4999229357722027  0.4998483245708883
  0.2500399611531305  0.7499600388468695 -0.0002209069024810
  0.8750291704748915  0.1249708295251085  0.7498367396076002
  0.7497924531950748  0.2502075468049251  0.4998811803128201
  0.5000774214185438  0.4999225785814563  0.0001317450851186
 -0.0000810025743693  0.0000810025743693 -0.0002271987992723
  0.7499645250833198  0.2500354749166806  0.0001129221892455
 -0.0000839452356762  0.0000839452356762  0.5003059253023012
  0.3747375388323209  0.6252624611676790  0.2497671376913717
  0.6251046754307402  0.3748953245692600  0.2497595136625637
  0.8752415235533570  0.1247584764466428  0.2501817024455228
  0.1245419994634596  0.8754580005365403  0.4998636632599961
  0.3749420643624309  0.6250579356375691  0.4992115953760349
  0.2504086214965179  0.7495913785034821  0.2501118863427944
  0.1249253840652161  0.8750746159347840  0.0001741637612170
  0.6251212502708953  0.3748787497291048  0.4990284591520485
  0.5001467819109162  0.4998532180890837  0.2499125669134671
 -0.0004812588655501  0.0004812588655501  0.2507608043254483
  0.3750918665838360  0.6249081334161639  0.0008223076798674
  0.2500065873149725  0.7499934126850274  0.7498851618821420
  0.8754125952365944  0.1245874047634057  0.4991845828397126
  0.7499035219531917  0.2500964780468083  0.2501061322558752
  0.6249740104542654  0.3750259895457343  0.0010087975290885
  0.4999650872228915  0.5000349127771088  0.7500257078078355
 -0.0000671424080104  0.0000671424080104  0.7492305820430192
  0.8750058651114642  0.1249941348885358  0.0007922268517080
  0.7500974048988442  0.2499025951011558  0.7498899229453189
  0.9377520326745190  0.5624388447174337  0.6247026853873615
  0.1870520113938947  0.3114846910343864  0.6244740920634076
  0.0630007221203221  0.4370804242308322  0.3740305901575961
  0.9363743487925964  0.5621033342761735  0.1256880632735321
  0.4375611552825660  0.0622479673254810  0.6247026853873615
  0.3125995673530008  0.1874655494126772  0.3749528632417380
  0.8125344505873229  0.6874004326469995  0.3749528632417380
  0.1870992836362374  0.3130625358498752  0.1259339536817566
  0.0626684200629391  0.4376117666677445  0.8749091391916026
  0.6885153089656136  0.8129479886061053  0.6244740920634076
  0.5629195757691681  0.9369992778796778  0.3740305901575961
  0.4378966657238266  0.0636256512074035  0.1256880632735321
  0.3123342568161868  0.1876339443283317  0.8753057283982218
  0.8123660556716682  0.6876657431838133  0.8753057283982218
  0.6869374641501247  0.8129007163637625  0.1259339536817566
  0.5623882333322556  0.9373315799370611  0.8749091391916026
  0.8128952489158249  0.6886333130625938  0.6242532097678709
  0.0625045256039688  0.4376380776062338  0.6249214696768080
  0.9365481667321777  0.5620655842073886  0.3745064477184311
  0.8119921190792980  0.6864458975924510  0.1254716855204183
  0.3113666869374063  0.1871047510841752  0.6242532097678709
  0.1864995255955925  0.3120313332576805  0.3744781491284482
  0.6879686667423196  0.8135004744044074  0.3744781491284482
  0.0631776519996027  0.4370359088161652  0.1261557340669635
  0.9375704545778804  0.5624468618997828  0.8751253234506128
  0.5623619223937665  0.9374954743960314  0.6249214696768080
  0.4379344157926113  0.0634518332678223  0.3745064477184311
  0.3135541024075492  0.1880078809207020  0.1254716855204183
  0.1875931474930433  0.3124737906084111  0.8750885081547591
  0.6875262093915888  0.8124068525069564  0.8750885081547591
  0.5629640911838347  0.9368223480003972  0.1261557340669635
  0.4375531381002171  0.0624295454221197  0.8751253234506128
 
  0.00000000E+00  0.00000000E+00  0.00000000E+00
  0.00000000E+00  0.00000000E+00  0.00000000E+00
  0.00000000E+00  0.00000000E+00  0.00000000E+00
  0.00000000E+00  0.00000000E+00  0.00000000E+00
  0.00000000E+00  0.00000000E+00  0.00000000E+00
  0.00000000E+00  0.00000000E+00  0.00000000E+00
  0.00000000E+00  0.00000000E+00  0.00000000E+00
  0.00000000E+00  0.00000000E+00  0.00000000E+00
  0.00000000E+00  0.00000000E+00  0.00000000E+00
  0.00000000E+00  0.00000000E+00  0.00000000E+00
  0.00000000E+00  0.00000000E+00  0.00000000E+00
  0.00000000E+00  0.00000000E+00  0.00000000E+00
  0.00000000E+00  0.00000000E+00  0.00000000E+00
  0.00000000E+00  0.00000000E+00  0.00000000E+00
  0.00000000E+00  0.00000000E+00  0.00000000E+00
  0.00000000E+00  0.00000000E+00  0.00000000E+00
  0.00000000E+00  0.00000000E+00  0.00000000E+00
  0.00000000E+00  0.00000000E+00  0.00000000E+00
  0.00000000E+00  0.00000000E+00  0.00000000E+00
  0.00000000E+00  0.00000000E+00  0.00000000E+00
  0.00000000E+00  0.00000000E+00  0.00000000E+00
  0.00000000E+00  0.00000000E+00  0.00000000E+00
  0.00000000E+00  0.00000000E+00  0.00000000E+00
  0.00000000E+00  0.00000000E+00  0.00000000E+00
  0.00000000E+00  0.00000000E+00  0.00000000E+00
  0.00000000E+00  0.00000000E+00  0.00000000E+00
  0.00000000E+00  0.00000000E+00  0.00000000E+00
  0.00000000E+00  0.00000000E+00  0.00000000E+00
  0.00000000E+00  0.00000000E+00  0.00000000E+00
  0.00000000E+00  0.00000000E+00  0.00000000E+00
  0.00000000E+00  0.00000000E+00  0.00000000E+00
  0.00000000E+00  0.00000000E+00  0.00000000E+00
  0.00000000E+00  0.00000000E+00  0.00000000E+00
  0.00000000E+00  0.00000000E+00  0.00000000E+00
  0.00000000E+00  0.00000000E+00  0.00000000E+00
  0.00000000E+00  0.00000000E+00  0.00000000E+00
  0.00000000E+00  0.00000000E+00  0.00000000E+00
  0.00000000E+00  0.00000000E+00  0.00000000E+00
  0.00000000E+00  0.00000000E+00  0.00000000E+00
  0.00000000E+00  0.00000000E+00  0.00000000E+00
  0.00000000E+00  0.00000000E+00  0.00000000E+00
  0.00000000E+00  0.00000000E+00  0.00000000E+00
  0.00000000E+00  0.00000000E+00  0.00000000E+00
  0.00000000E+00  0.00000000E+00  0.00000000E+00
  0.00000000E+00  0.00000000E+00  0.00000000E+00
  0.00000000E+00  0.00000000E+00  0.00000000E+00
  0.00000000E+00  0.00000000E+00  0.00000000E+00
  0.00000000E+00  0.00000000E+00  0.00000000E+00
  0.00000000E+00  0.00000000E+00  0.00000000E+00
  0.00000000E+00  0.00000000E+00  0.00000000E+00
  0.00000000E+00  0.00000000E+00  0.00000000E+00
  0.00000000E+00  0.00000000E+00  0.00000000E+00
  0.00000000E+00  0.00000000E+00  0.00000000E+00
  0.00000000E+00  0.00000000E+00  0.00000000E+00
  0.00000000E+00  0.00000000E+00  0.00000000E+00
  0.00000000E+00  0.00000000E+00  0.00000000E+00
  0.00000000E+00  0.00000000E+00  0.00000000E+00
  0.00000000E+00  0.00000000E+00  0.00000000E+00
  0.00000000E+00  0.00000000E+00  0.00000000E+00
  0.00000000E+00  0.00000000E+00  0.00000000E+00
  0.00000000E+00  0.00000000E+00  0.00000000E+00
  0.00000000E+00  0.00000000E+00  0.00000000E+00
  0.00000000E+00  0.00000000E+00  0.00000000E+00
  0.00000000E+00  0.00000000E+00  0.00000000E+00
