title                                   
   1.00000000000000     
     0.0000000000000000    1.9365574229321429    1.9365574229321429
     1.9365574229321429    0.0000000000000000    1.9365574229321429
     1.9365574229321429    1.9365574229321429    0.0000000000000000
   Ir
     1
Direct
  0.0000000000000000  0.0000000000000000  0.0000000000000000
 
  0.00000000E+00  0.00000000E+00  0.00000000E+00
