title
1.
0.000000000 2.004647500 2.004647500
2.004647500 0.000000000 2.004647500
2.004647500 2.004647500 0.000000000
1
Cartesian
0.000000000 0.000000000 0.000000000    Ir
