title                                   
   1.00000000000000     
    -5.4847727542176443    4.7501067371994816   -4.3541641667155684
    -5.4857919272933175   -4.7519141865196914    4.3534976366594345
     5.4863399012433947    4.7538484758679793    4.3562145153530523
   Ir   Ru
    16    16
Direct
  0.5007725827021261  0.5023198424891220  0.0008919758782966
  0.2507483298872444  0.2494221201854145  0.0017033974174652
  0.8747241627824778  0.6239739512065867  0.2483579608382485
  0.8730953094271499  0.1257335533456967  0.7497236440445079
  0.1257019342284806  0.8725334287412210  0.2459946682793870
  0.6245195620974400  0.8721650628490920  0.7495249432091668
  0.1244253001827857  0.3799985531222987  0.7520424015659728
  0.4579597123773596  0.6265540168546906  0.3342198018467499
  0.2085690245758371  0.3755926920096471  0.3348232072004009
  0.9568829702883193  0.1242328765779774  0.3323339248751793
  0.8343032155823096  0.7485178714442569  0.5834497968995223
  0.3351130811153311  0.2499842712139042  0.5825651422629221
  0.4592510861507293  0.1242601043960079  0.8325033143943301
  0.8336511409375191  0.2510998549448900  0.0849280425520647
  0.0832624429647240  0.9989214691418695  0.5823524571709058
  0.5822663246387734  0.9998408290602399  0.0851114727536384
  0.7489636768523340  0.7474953027830296  0.9969199139314640
  0.0008870888541423  0.9971183833380408  0.9984917893853691
  0.6249395888318716  0.3751159320519406  0.2526333507607390
  0.3753228723991455  0.1235949224179933  0.2491312515334130
  0.7495267373400551  0.2524550911984491  0.5014607295571594
  0.5006978867167220  0.0003289991465962  0.4977115143637008
  0.2491151653715917  0.7484099562820674  0.4998742169142929
  0.0002170128405794  0.5017044771066779  0.5034869734088829
  0.3754004701119840  0.6269208554981844  0.7511263451075152
  0.7077448544868687  0.8766470241275428  0.3328619726423838
  0.5834022822814191  0.4975631478703022  0.5831172012731116
  0.7085069583026851  0.3755679003083401  0.8314318491817971
  0.2085503516679026  0.8734595434618839  0.8336373077756036
  0.9571684618195562  0.6245470183637138  0.8328845612140796
  0.3342147384433858  0.7525077841354175  0.0840031162250270
  0.0834256746231716  0.5014111645653117  0.0840337561802116
 
  0.00000000E+00  0.00000000E+00  0.00000000E+00
  0.00000000E+00  0.00000000E+00  0.00000000E+00
  0.00000000E+00  0.00000000E+00  0.00000000E+00
  0.00000000E+00  0.00000000E+00  0.00000000E+00
  0.00000000E+00  0.00000000E+00  0.00000000E+00
  0.00000000E+00  0.00000000E+00  0.00000000E+00
  0.00000000E+00  0.00000000E+00  0.00000000E+00
  0.00000000E+00  0.00000000E+00  0.00000000E+00
  0.00000000E+00  0.00000000E+00  0.00000000E+00
  0.00000000E+00  0.00000000E+00  0.00000000E+00
  0.00000000E+00  0.00000000E+00  0.00000000E+00
  0.00000000E+00  0.00000000E+00  0.00000000E+00
  0.00000000E+00  0.00000000E+00  0.00000000E+00
  0.00000000E+00  0.00000000E+00  0.00000000E+00
  0.00000000E+00  0.00000000E+00  0.00000000E+00
  0.00000000E+00  0.00000000E+00  0.00000000E+00
  0.00000000E+00  0.00000000E+00  0.00000000E+00
  0.00000000E+00  0.00000000E+00  0.00000000E+00
  0.00000000E+00  0.00000000E+00  0.00000000E+00
  0.00000000E+00  0.00000000E+00  0.00000000E+00
  0.00000000E+00  0.00000000E+00  0.00000000E+00
  0.00000000E+00  0.00000000E+00  0.00000000E+00
  0.00000000E+00  0.00000000E+00  0.00000000E+00
  0.00000000E+00  0.00000000E+00  0.00000000E+00
  0.00000000E+00  0.00000000E+00  0.00000000E+00
  0.00000000E+00  0.00000000E+00  0.00000000E+00
  0.00000000E+00  0.00000000E+00  0.00000000E+00
  0.00000000E+00  0.00000000E+00  0.00000000E+00
  0.00000000E+00  0.00000000E+00  0.00000000E+00
  0.00000000E+00  0.00000000E+00  0.00000000E+00
  0.00000000E+00  0.00000000E+00  0.00000000E+00
  0.00000000E+00  0.00000000E+00  0.00000000E+00
