title                                   
   1.00000000000000     
    -5.4847727542176443    4.7501067371994816   -4.3541641667155684
    -5.4857919272933175   -4.7519141865196914    4.3534976366594345
     5.4863399012433947    4.7538484758679793    4.3562145153530523
   Ir   Ru
    16    16
Direct
  0.5007725827021239  0.5023198424891252  0.0008919758782958
  0.2507483298872447  0.2494221201854177  0.0017033974174649
  0.8747241627824798  0.6239739512065881  0.2483579608382475
  0.8730953094271506  0.1257335533456997  0.7497236440445102
  0.1257019342284794  0.8725334287412215  0.2459946682793886
  0.6245195620974373  0.8721650628490951  0.7495249432091636
  0.1244253001827853  0.3799985531222984  0.7520424015659716
  0.4579597123773599  0.6265540168546906  0.3342198018467529
  0.2085690245758346  0.3755926920096457  0.3348232072004037
  0.9568829702883217  0.1242328765779766  0.3323339248751794
  0.8343032155823109  0.7485178714442557  0.5834497968995201
  0.3351130811153280  0.2499842712139065  0.5825651422629219
  0.4592510861507297  0.1242601043960056  0.8325033143943316
  0.8336511409375181  0.2510998549448877  0.0849280425520661
  0.0832624429647273  0.9989214691418665  0.5823524571709030
  0.5822663246387734  0.9998408290602384  0.0851114727536361
  0.7489636768523339  0.7474953027830276 -0.0030800860685379
  0.0008870888541446 -0.0028816166619604 -0.0015082106146322
  0.6249395888318714  0.3751159320519415  0.2526333507607377
  0.3753228723991444  0.1235949224179927  0.2491312515334138
  0.7495267373400559  0.2524550911984501  0.5014607295571577
  0.5006978867167241  0.0003289991465949  0.4977115143637039
  0.2491151653715885  0.7484099562820657  0.4998742169142917
  0.0002170128405806  0.5017044771066751  0.5034869734088857
  0.3754004701119864  0.6269208554981877  0.7511263451075146
  0.7077448544868705  0.8766470241275415  0.3328619726423862
  0.5834022822814182  0.4975631478703047  0.5831172012731144
  0.7085069583026885  0.3755679003083423  0.8314318491817969
  0.2085503516679005  0.8734595434618859  0.8336373077756016
  0.9571684618195567  0.6245470183637111  0.8328845612140797
  0.3342147384433889  0.7525077841354170  0.0840031162250236
  0.0834256746231712  0.5014111645653103  0.0840337561802143
 
  0.00000000E+00  0.00000000E+00  0.00000000E+00
  0.00000000E+00  0.00000000E+00  0.00000000E+00
  0.00000000E+00  0.00000000E+00  0.00000000E+00
  0.00000000E+00  0.00000000E+00  0.00000000E+00
  0.00000000E+00  0.00000000E+00  0.00000000E+00
  0.00000000E+00  0.00000000E+00  0.00000000E+00
  0.00000000E+00  0.00000000E+00  0.00000000E+00
  0.00000000E+00  0.00000000E+00  0.00000000E+00
  0.00000000E+00  0.00000000E+00  0.00000000E+00
  0.00000000E+00  0.00000000E+00  0.00000000E+00
  0.00000000E+00  0.00000000E+00  0.00000000E+00
  0.00000000E+00  0.00000000E+00  0.00000000E+00
  0.00000000E+00  0.00000000E+00  0.00000000E+00
  0.00000000E+00  0.00000000E+00  0.00000000E+00
  0.00000000E+00  0.00000000E+00  0.00000000E+00
  0.00000000E+00  0.00000000E+00  0.00000000E+00
  0.00000000E+00  0.00000000E+00  0.00000000E+00
  0.00000000E+00  0.00000000E+00  0.00000000E+00
  0.00000000E+00  0.00000000E+00  0.00000000E+00
  0.00000000E+00  0.00000000E+00  0.00000000E+00
  0.00000000E+00  0.00000000E+00  0.00000000E+00
  0.00000000E+00  0.00000000E+00  0.00000000E+00
  0.00000000E+00  0.00000000E+00  0.00000000E+00
  0.00000000E+00  0.00000000E+00  0.00000000E+00
  0.00000000E+00  0.00000000E+00  0.00000000E+00
  0.00000000E+00  0.00000000E+00  0.00000000E+00
  0.00000000E+00  0.00000000E+00  0.00000000E+00
  0.00000000E+00  0.00000000E+00  0.00000000E+00
  0.00000000E+00  0.00000000E+00  0.00000000E+00
  0.00000000E+00  0.00000000E+00  0.00000000E+00
  0.00000000E+00  0.00000000E+00  0.00000000E+00
  0.00000000E+00  0.00000000E+00  0.00000000E+00
