title
1.
-5.670009000 4.910370000 -4.629534000
-5.670011000 -4.910370000 4.629534000
5.670011000 4.910370000 4.629534000
16 16
Cartesian
0.000001000 4.910370000 4.629534000    Ir
2.835006000 4.910370000 4.629534000    Ir
-7.087512000 2.455185000 0.000000000    Ir
-1.417501000 7.365555000 0.000000000    Ir
-4.252508000 -2.455185000 4.629534000    Ir
-4.252507000 2.455185000 4.629534000    Ir
1.417503000 2.455185000 4.629534000    Ir
-4.252505916 0.818394182 2.314767000    Ir
-1.417500916 0.818394182 2.314767000    Ir
-4.252504916 5.728764182 -2.314767000    Ir
-5.670007916 3.273579182 2.314767000    Ir
0.000002084 3.273579182 2.314767000    Ir
1.417505084 5.728764182 2.314767000    Ir
-5.670007916 3.273579182 -2.314767000    Ir
-2.835003916 -1.636790818 6.944301000    Ir
-8.505013916 -1.636790818 2.314767000    Ir
-2.835004000 4.910370000 4.629534000    Ru
-5.670009000 4.910370000 4.629534000    Ru
-4.252507000 2.455185000 0.000000000    Ru
-1.417502000 2.455185000 0.000000000    Ru
-2.835004000 4.910370000 0.000000000    Ru
-5.670010000 0.000000000 4.629534000    Ru
-2.835005000 0.000000000 4.629534000    Ru
-5.670009000 4.910370000 0.000000000    Ru
-1.417502000 2.455185000 4.629534000    Ru
-7.087510916 0.818394182 2.314767000    Ru
-2.835002916 3.273579182 2.314767000    Ru
-1.417499916 5.728764182 2.314767000    Ru
-1.417500916 0.818394182 6.944301000    Ru
-4.252504916 5.728764182 2.314767000    Ru
-5.670008916 -1.636790818 2.314767000    Ru
-2.835003916 -1.636790818 2.314767000    Ru
