title
1.
-1.373550000 -2.378610000 0.001080000
10.991770000 -4.765300000 -4.454800000
-0.010480000 0.021920000 17.864240000
40
Cartesian
5.309479489 -4.754265654 -0.006172582    Ir
7.065461737 -3.969598801 2.278905627    Ir
8.240277779 -4.760724111 0.011807132    Ir
8.239168855 -6.344000502 2.246208646    Ir
1.372077779 -2.380554111 0.005267132    Ir
2.744518855 -1.585220502 2.238588646    Ir
4.119327779 -2.381074111 0.007087132    Ir
4.118218855 -3.964350502 2.241488646    Ir
10.979667779 -4.744804111 13.411807132    Ir
-0.002731145 -1.584700502 2.236768646    Ir
5.490407779 -4.754724111 4.476047132    Ir
6.862848855 -3.959390502 6.709368646    Ir
8.237657779 -4.755244111 4.477867132    Ir
8.236548855 -6.338520502 6.712268646    Ir
1.369457779 -2.375074111 4.471327132    Ir
2.741898855 -1.579740502 6.704648646    Ir
4.116721222 -2.366292732 4.473139360    Ir
4.115598855 -3.958870502 6.707548646    Ir
10.987527779 -4.761244111 0.013627132    Ir
-0.005351145 -1.579220502 6.702828646    Ir
5.487801222 -4.739942732 8.942099360    Ir
6.860228855 -3.953910502 11.175428646    Ir
8.339325640 -4.742757449 8.892943205    Ir
8.233928855 -6.333040502 11.178328646    Ir
1.366837779 -2.369594111 8.937387132    Ir
2.739278855 -1.574260502 11.170708646    Ir
4.114087779 -2.370114111 8.939207132    Ir
4.112978855 -3.953390502 11.173608646    Ir
10.984907779 -4.755764111 4.479687132    Ir
-0.007971145 -1.573740502 11.168888646    Ir
5.485167779 -4.743764111 13.408167132    Ir
6.868088855 -3.970350502 -2.222751354    Ir
8.232429733 -4.744289349 13.483275293    Ir
8.241795358 -6.349394014 -2.207525079    Ir
1.364229045 -2.364104924 13.313991823    Ir
2.736643418 -1.568881055 15.709922886    Ir
4.099143514 -2.275114846 13.405228746    Ir
4.110358855 -3.947910502 15.639668646    Ir
10.982287779 -4.750284111 8.945747132    Ir
-0.010591145 -1.568260502 15.634948646    Ir
