title                                   
   1.00000000000000     
    -8.2028372546332857    4.7353373060060315   -4.3257218385090184
     0.0001280192242979    9.4714760546358843   -4.3251033091187505
     1.3665017363350811   -2.3675120734223851   -4.3243303262510109
   Ir   Ru
     8    24
Direct
  0.9377409932546795  0.4376273557357716  0.6262096027802552
  0.4382997180831247  0.9379513050359324  0.6271730089028740
  0.5634670258724990  0.0630256060655541  0.3762949651895219
  0.0631501977376089  0.5635958865259878  0.3760186847156279
  0.7072711929188550  0.5414444377585139  0.2483972887263461
  0.3951520894204509  0.7282995381915225  0.3733426623247618
  0.2072283640363009  0.0414736941155279  0.2486004830071564
  0.0210443795754710  0.3532988995184155  0.1236337883001287
  0.8113996786296596  0.3114891622785015  0.8723261143893466
  0.6244192133484852  0.6249079179233602  0.7510553149536980
  0.3117636333513403  0.8121622453153742  0.8731043549020869
  0.7505049932758562  0.7511753223065742  0.5021328887232261
  0.8751936678487827  0.8757659509810136  0.2495536742472057
  0.1240734736885005  0.1242531593827367  0.7492952155858933
  0.2512700348896140  0.2505615202294119  0.5025284186554944
  0.6872126286224853  0.1871312527579116  0.1244810448526968
  0.3757435026667332  0.3752849524481938  0.2497704252473255
  0.4994918993968339  0.4988547284290436 -0.0024598560034370
  0.1866534150742767  0.6874049021226959  0.1244136686546185
 -0.0012750869120607 -0.0003257762981668 -0.0019911991393528
  0.5835402713753290  0.4156814357893114  0.4998716386165954
  0.0825435130346552  0.9166939343849254  0.4996354425650318
  0.5217415718779784  0.8540744010155729  0.1234107535558647
  0.6469487038006806  0.9787994934597658  0.8770002302346492
  0.8943426078918929  0.2276979196895324  0.3740707361285901
  0.3337705707156106  0.1671376788416161  0.0004152598806720
  0.4587932004038957  0.2925053810838045  0.7514707841629588
  0.1478009961351770  0.4796690932433388  0.8757431228095848
  0.8325861986091128  0.6681213136106676  0.0002620241533306
  0.2708775317438087  0.6038476157163507  0.6269035989347707
  0.9587679515845804  0.7925408714568429  0.7515090709034483
  0.7718128682654232  0.1045158012686174  0.6258287884371668
 
  0.00000000E+00  0.00000000E+00  0.00000000E+00
  0.00000000E+00  0.00000000E+00  0.00000000E+00
  0.00000000E+00  0.00000000E+00  0.00000000E+00
  0.00000000E+00  0.00000000E+00  0.00000000E+00
  0.00000000E+00  0.00000000E+00  0.00000000E+00
  0.00000000E+00  0.00000000E+00  0.00000000E+00
  0.00000000E+00  0.00000000E+00  0.00000000E+00
  0.00000000E+00  0.00000000E+00  0.00000000E+00
  0.00000000E+00  0.00000000E+00  0.00000000E+00
  0.00000000E+00  0.00000000E+00  0.00000000E+00
  0.00000000E+00  0.00000000E+00  0.00000000E+00
  0.00000000E+00  0.00000000E+00  0.00000000E+00
  0.00000000E+00  0.00000000E+00  0.00000000E+00
  0.00000000E+00  0.00000000E+00  0.00000000E+00
  0.00000000E+00  0.00000000E+00  0.00000000E+00
  0.00000000E+00  0.00000000E+00  0.00000000E+00
  0.00000000E+00  0.00000000E+00  0.00000000E+00
  0.00000000E+00  0.00000000E+00  0.00000000E+00
  0.00000000E+00  0.00000000E+00  0.00000000E+00
  0.00000000E+00  0.00000000E+00  0.00000000E+00
  0.00000000E+00  0.00000000E+00  0.00000000E+00
  0.00000000E+00  0.00000000E+00  0.00000000E+00
  0.00000000E+00  0.00000000E+00  0.00000000E+00
  0.00000000E+00  0.00000000E+00  0.00000000E+00
  0.00000000E+00  0.00000000E+00  0.00000000E+00
  0.00000000E+00  0.00000000E+00  0.00000000E+00
  0.00000000E+00  0.00000000E+00  0.00000000E+00
  0.00000000E+00  0.00000000E+00  0.00000000E+00
  0.00000000E+00  0.00000000E+00  0.00000000E+00
  0.00000000E+00  0.00000000E+00  0.00000000E+00
  0.00000000E+00  0.00000000E+00  0.00000000E+00
  0.00000000E+00  0.00000000E+00  0.00000000E+00
