title                                   
   1.00000000000000     
    -8.2028372546332857    4.7353373060060315   -4.3257218385090184
     0.0001280192242979    9.4714760546358843   -4.3251033091187505
     1.3665017363350811   -2.3675120734223851   -4.3243303262510109
   Ir   Ru
     8    24
Direct
  0.9377409932546783  0.4376273557357706  0.6262096027802571
  0.4382997180831225  0.9379513050359307  0.6271730089028722
  0.5634670258724981  0.0630256060655512  0.3762949651895227
  0.0631501977376061  0.5635958865259880  0.3760186847156248
  0.7072711929188529  0.5414444377585141  0.2483972887263448
  0.3951520894204492  0.7282995381915214  0.3733426623247595
  0.2072283640363040  0.0414736941155311  0.2486004830071593
  0.0210443795754713  0.3532988995184141  0.1236337883001255
  0.8113996786296624  0.3114891622784981  0.8723261143893453
  0.6244192133484887  0.6249079179233590  0.7510553149536960
  0.3117636333513403  0.8121622453153776  0.8731043549020896
  0.7505049932758538  0.7511753223065725  0.5021328887232244
  0.8751936678487837  0.8757659509810125  0.2495536742472027
  0.1240734736884974  0.1242531593827394  0.7492952155858958
  0.2512700348896146  0.2505615202294109  0.5025284186554941
  0.6872126286224827  0.1871312527579150  0.1244810448526934
  0.3757435026667366  0.3752849524481974  0.2497704252473270
  0.4994918993968369  0.4988547284290448  0.9975401439965665
  0.1866534150742751  0.6874049021226938  0.1244136686546184
  0.9987249130879405  0.9996742237018310  0.9980088008606458
  0.5835402713753268  0.4156814357893097  0.4998716386165967
  0.0825435130346577  0.9166939343849236  0.4996354425650296
  0.5217415718779819  0.8540744010155734  0.1234107535558664
  0.6469487038006818  0.9787994934597677  0.8770002302346498
  0.8943426078918932  0.2276979196895326  0.3740707361285871
  0.3337705707156076  0.1671376788416126  0.0004152598806755
  0.4587932004038962  0.2925053810838065  0.7514707841629615
  0.1478009961351745  0.4796690932433378  0.8757431228095882
  0.8325861986091141  0.6681213136106692  0.0002620241533293
  0.2708775317438068  0.6038476157163473  0.6269035989347742
  0.9587679515845835  0.7925408714568434  0.7515090709034453
  0.7718128682654211  0.1045158012686187  0.6258287884371683
 
  0.00000000E+00  0.00000000E+00  0.00000000E+00
  0.00000000E+00  0.00000000E+00  0.00000000E+00
  0.00000000E+00  0.00000000E+00  0.00000000E+00
  0.00000000E+00  0.00000000E+00  0.00000000E+00
  0.00000000E+00  0.00000000E+00  0.00000000E+00
  0.00000000E+00  0.00000000E+00  0.00000000E+00
  0.00000000E+00  0.00000000E+00  0.00000000E+00
  0.00000000E+00  0.00000000E+00  0.00000000E+00
  0.00000000E+00  0.00000000E+00  0.00000000E+00
  0.00000000E+00  0.00000000E+00  0.00000000E+00
  0.00000000E+00  0.00000000E+00  0.00000000E+00
  0.00000000E+00  0.00000000E+00  0.00000000E+00
  0.00000000E+00  0.00000000E+00  0.00000000E+00
  0.00000000E+00  0.00000000E+00  0.00000000E+00
  0.00000000E+00  0.00000000E+00  0.00000000E+00
  0.00000000E+00  0.00000000E+00  0.00000000E+00
  0.00000000E+00  0.00000000E+00  0.00000000E+00
  0.00000000E+00  0.00000000E+00  0.00000000E+00
  0.00000000E+00  0.00000000E+00  0.00000000E+00
  0.00000000E+00  0.00000000E+00  0.00000000E+00
  0.00000000E+00  0.00000000E+00  0.00000000E+00
  0.00000000E+00  0.00000000E+00  0.00000000E+00
  0.00000000E+00  0.00000000E+00  0.00000000E+00
  0.00000000E+00  0.00000000E+00  0.00000000E+00
  0.00000000E+00  0.00000000E+00  0.00000000E+00
  0.00000000E+00  0.00000000E+00  0.00000000E+00
  0.00000000E+00  0.00000000E+00  0.00000000E+00
  0.00000000E+00  0.00000000E+00  0.00000000E+00
  0.00000000E+00  0.00000000E+00  0.00000000E+00
  0.00000000E+00  0.00000000E+00  0.00000000E+00
  0.00000000E+00  0.00000000E+00  0.00000000E+00
  0.00000000E+00  0.00000000E+00  0.00000000E+00
