title
1.
5.465420000 -0.000026113 0.000000000
-2.732730000 4.733180000 0.000000000
0.000000000 0.000000000 4.323860000
2 6
Cartesian
-0.000040661 3.155460406 1.080965000    Ir
2.732730660 1.577693481 3.242895000    Ir
2.732666575 3.162883155 1.080965000    Ru
4.105461689 0.785146517 1.080965000    Ru
1.359883358 0.785154901 1.080965000    Ru
0.000023425 1.570270732 3.242895000    Ru
1.372806642 3.947998986 3.242895000    Ru
-1.372771689 3.948007371 3.242895000    Ru
