title                                   
   1.00000000000000     
    -3.8656749574125153    3.8656749574125153   -3.8652864860883733
     3.8656749574125153   -3.8656749574125153   -3.8652864860883733
    -7.7342777015716271   -7.7342777015716271   -0.0000000000000000
   Ir   Ru
    28     4
Direct
  0.2508511252802203  0.7491488747197800  0.7500000000000000
  0.7491488747197800  0.2508511252802203  0.7500000000000000
 -0.0000000000000000  0.0000000000000000  0.5000901830215678
 -0.0000000000000000 -0.0000000000000000 -0.0000901830215679
  0.1263224254691811  0.3755373723716256  0.6240735095004413
  0.6244626276283741  0.8736775745308188  0.6240735095004413
  0.3763869916123537  0.1255441184550803  0.3740755706380026
  0.1255441184550803  0.3763869916123537  0.1259244293619975
  0.6236130083876463  0.8744558815449197  0.1259244293619975
  0.3755373723716256  0.1263224254691811  0.8759264904995587
  0.8744558815449197  0.6236130083876463  0.3740755706380026
  0.8736775745308188  0.6244626276283741  0.8759264904995587
  0.8736775745308188  0.6244626276283741  0.6240735095004413
  0.3755373723716256  0.1263224254691811  0.6240735095004413
  0.1255441184550803  0.3763869916123537  0.3740755706380026
  0.8744558815449197  0.6236130083876463  0.1259244293619975
  0.3763869916123537  0.1255441184550803  0.1259244293619975
  0.1263224254691811  0.3755373723716256  0.8759264904995587
  0.6236130083876463  0.8744558815449197  0.3740755706380026
  0.6244626276283741  0.8736775745308188  0.8759264904995587
  0.2506808832715238  0.7493191167284761  0.4985155605788177
  0.7493191167284761  0.2506808832715238  0.4985155605788177
  0.5000000000000000  0.5000000000000000  0.2500000000000000
  0.2506808832715238  0.7493191167284761  0.0014844394211823
  0.7493191167284761  0.2506808832715238  0.0014844394211823
  0.5000000000000000  0.5000000000000000  0.7500000000000000
 -0.0000000000000000  0.0000000000000000  0.2500000000000000
 -0.0000000000000000  0.0000000000000000  0.7500000000000000
  0.5000000000000000  0.5000000000000000  0.5002762310777890
  0.2510105590563242  0.7489894409436757  0.2500000000000000
  0.7489894409436757  0.2510105590563242  0.2500000000000000
  0.5000000000000000  0.5000000000000000 -0.0002762310777889
 
  0.00000000E+00  0.00000000E+00  0.00000000E+00
  0.00000000E+00  0.00000000E+00  0.00000000E+00
  0.00000000E+00  0.00000000E+00  0.00000000E+00
  0.00000000E+00  0.00000000E+00  0.00000000E+00
  0.00000000E+00  0.00000000E+00  0.00000000E+00
  0.00000000E+00  0.00000000E+00  0.00000000E+00
  0.00000000E+00  0.00000000E+00  0.00000000E+00
  0.00000000E+00  0.00000000E+00  0.00000000E+00
  0.00000000E+00  0.00000000E+00  0.00000000E+00
  0.00000000E+00  0.00000000E+00  0.00000000E+00
  0.00000000E+00  0.00000000E+00  0.00000000E+00
  0.00000000E+00  0.00000000E+00  0.00000000E+00
  0.00000000E+00  0.00000000E+00  0.00000000E+00
  0.00000000E+00  0.00000000E+00  0.00000000E+00
  0.00000000E+00  0.00000000E+00  0.00000000E+00
  0.00000000E+00  0.00000000E+00  0.00000000E+00
  0.00000000E+00  0.00000000E+00  0.00000000E+00
  0.00000000E+00  0.00000000E+00  0.00000000E+00
  0.00000000E+00  0.00000000E+00  0.00000000E+00
  0.00000000E+00  0.00000000E+00  0.00000000E+00
  0.00000000E+00  0.00000000E+00  0.00000000E+00
  0.00000000E+00  0.00000000E+00  0.00000000E+00
  0.00000000E+00  0.00000000E+00  0.00000000E+00
  0.00000000E+00  0.00000000E+00  0.00000000E+00
  0.00000000E+00  0.00000000E+00  0.00000000E+00
  0.00000000E+00  0.00000000E+00  0.00000000E+00
  0.00000000E+00  0.00000000E+00  0.00000000E+00
  0.00000000E+00  0.00000000E+00  0.00000000E+00
  0.00000000E+00  0.00000000E+00  0.00000000E+00
  0.00000000E+00  0.00000000E+00  0.00000000E+00
  0.00000000E+00  0.00000000E+00  0.00000000E+00
  0.00000000E+00  0.00000000E+00  0.00000000E+00
