title
1.
7.653760000 0.000000000 7.653760000
7.653760000 7.653760000 0.000000000
0.000000000 7.653760000 7.653760000
16 48
Cartesian
3.826880000 3.826880000 3.826880000    Ir
7.653760000 7.653760000 3.826880000    Ir
7.653760000 3.826880000 7.653760000    Ir
3.826880000 7.653760000 7.653760000    Ir
7.653760000 7.653760000 7.653760000    Ir
11.480640000 7.653760000 7.653760000    Ir
7.653760000 11.480640000 7.653760000    Ir
11.480640000 11.480640000 7.653760000    Ir
7.653760000 7.653760000 11.480640000    Ir
11.480640000 7.653760000 11.480640000    Ir
7.653760000 11.480640000 11.480640000    Ir
11.480640000 11.480640000 11.480640000    Ir
15.307520000 11.480640000 11.480640000    Ir
11.480640000 15.307520000 11.480640000    Ir
11.480640000 11.480640000 15.307520000    Ir
15.307520000 15.307520000 15.307520000    Ir
3.855160643 9.587214582 9.587214582    Ru
9.567200000 3.826880000 9.567200000    Ru
9.567200000 9.567200000 3.826880000    Ru
7.653760000 13.394080000 9.567200000    Ru
13.394080000 7.653760000 9.567200000    Ru
5.740320000 5.740320000 3.826880000    Ru
7.653760000 9.567200000 13.394080000    Ru
5.740320000 3.826880000 5.740320000    Ru
13.394080000 9.567200000 7.653760000    Ru
3.826880000 5.740320000 5.740320000    Ru
9.567200000 7.653760000 13.394080000    Ru
9.567200000 13.394080000 7.653760000    Ru
7.653760000 5.740320000 5.740320000    Ru
5.740320000 7.653760000 5.740320000    Ru
5.740320000 5.740320000 7.653760000    Ru
11.480640000 13.394080000 13.394080000    Ru
9.567200000 7.653760000 5.740320000    Ru
9.567200000 5.740320000 7.653760000    Ru
7.653760000 9.567200000 5.740320000    Ru
13.394080000 11.480640000 13.394080000    Ru
5.740320000 9.567200000 7.653760000    Ru
11.480640000 9.567200000 5.740320000    Ru
9.567200000 11.480640000 5.740320000    Ru
9.567200000 9.567200000 7.653760000    Ru
7.653760000 5.740320000 9.567200000    Ru
5.740320000 7.653760000 9.567200000    Ru
13.394080000 13.394080000 11.480640000    Ru
11.480640000 5.740320000 9.567200000    Ru
9.567200000 7.653760000 9.567200000    Ru
9.567200000 5.740320000 11.480640000    Ru
7.653760000 9.567200000 9.567200000    Ru
5.740320000 11.480640000 9.567200000    Ru
5.740320000 9.567200000 11.480640000    Ru
11.480640000 9.567200000 9.567200000    Ru
9.567200000 11.480640000 9.567200000    Ru
9.567200000 9.567200000 11.480640000    Ru
15.307520000 9.567200000 9.567200000    Ru
13.394080000 11.480640000 9.567200000    Ru
13.394080000 9.567200000 11.480640000    Ru
11.480640000 13.394080000 9.567200000    Ru
9.567200000 15.307520000 9.567200000    Ru
9.567200000 13.394080000 11.480640000    Ru
11.480640000 9.567200000 13.394080000    Ru
9.567200000 11.480640000 13.394080000    Ru
9.567200000 9.567200000 15.307520000    Ru
15.307520000 13.394080000 13.394080000    Ru
13.394080000 15.307520000 13.394080000    Ru
13.394080000 13.394080000 15.307520000    Ru
