title
1.
3.860803000 0.000000000 0.000000000
0.000000000 3.860803000 0.000000000
0.000000000 0.000000000 3.860803000
4
Cartesian
0.000000000 1.930401500 1.930401500    Ru
1.930401500 0.000000000 1.930401500    Ru
1.930401500 1.930401500 0.000000000    Ru
0.000000000 0.000000000 0.000000000    Ru
