Ir_Ru                                   
   1.00000000000000     
     4.8492319999999998    2.0557170000000000   -4.8569709999999997
     3.5699700000000001    8.4679210000000005    3.9896310000000001
     9.4116470000000003   -3.1372160000000000    6.2744309999999999
   Ru
    48
Direct
  0.5252046922892414  0.4110553395499654  0.7474625519486064
  0.0048725030800856  0.0676541462310386  0.8520812089578994
  0.8218422200528553  0.1747122846861476  0.7081531204142161
  0.8124876928951902  0.8522853793837309  0.2806785301895250
  0.1956603468364033  0.8317155000668293  0.2572584774003963
  0.5632506859242782  0.9511385356695601  0.5791224949658851
  0.4505961133586487  0.8302722484857903  0.8209625056892381
  0.9657039690447118  0.3826256151368188  0.2243906896560472
  0.4286868395599268  0.0273377691906429  0.2341400157814379
  0.6827842808666642  0.1505739861639541  0.9971168112533394
  0.1664040143470061  0.1035925434793436  0.0535288699562047
  0.7326834216355255  0.7586744026860290  0.4969914175554156
  0.5182664521036373  0.5343813628465142  0.9074254170706768
  0.9485326259947872  0.6630048082678632  0.1777851562332196
  0.5715813387350738  0.2479374994168062  0.4616853336414334
  0.3949260539384452  0.2816303655346314  0.9283572790147713
  0.0431674157926538  0.3811677595694080  0.0220139591464665
  0.1455910494759999  0.5418271387072966  0.6683381530617146
  0.2102345197641768  0.5591975470541040  0.9851971725327490
  0.4179648542906711  0.0265718268664736  0.9315977174154308
  0.2574024898686648  0.9388345815666843  0.4835544338107442
  0.4069409586247901  0.2842339993710297  0.1452207131553662
  0.2716754945769422  0.2350728901285104  0.3832225198756702
  0.2938964719586531  0.4838145266541862  0.2282490518771456
  0.4697015896124527  0.7567869800438723  0.0205098372536354
  0.7198281262586071  0.4157772170365999  0.5554103941021160
  0.9127181801735907  0.9322884714268233  0.5859585260606971
  0.2596244784945539  0.0374004074602978  0.6734076886645615
  0.7296671859193988  0.0505137407928853  0.3743451587758878
  0.2147539130334322  0.3048247533141561  0.6110026122880065
  0.4534877662362895  0.6682025248481316  0.6772632423827103
  0.4064791348898675  0.4871837113911185  0.5088979386202307
  0.8178210233824396  0.6764825681269296  0.7232872761111498
  0.9380754926613093  0.1548940355964654  0.4882236513305298
  0.0506883589771057  0.8613327085935246  0.0689740293158443
  0.0932884813645817  0.1081885805520024  0.2893425918452324
  0.7612062597850910  0.9029693363590140  0.9396258856534766
  0.6748453060126166  0.4328108223676754  0.1013580810567925
  0.9527044584817236  0.3787297760749508  0.8320805007320072
  0.6166999516328170  0.9001820346182564  0.1342694319668162
  0.5338221198684234  0.7014445730819207  0.3331413638114692
  0.8108842606881314  0.6459956441865337  0.9660473850908733
  0.8116808406695757  0.1434984801007214  0.1677568453739477
  0.6485882042060149  0.4957107664883984  0.3230280551056572
  0.0240351252917908  0.4672332021905806  0.4124037828931974
  0.1541403758170039  0.7198093499560607  0.4965370282224465
  0.5205373288172763  0.1613029328322338  0.7291298552328359
  0.0254900327109188  0.8095186958474880  0.7841104775063367
 
 -0.90052837E-02 -0.70769441E-02 -0.53769363E-02
  0.12808591E-02 -0.41094164E-03 -0.58868908E-03
  0.45011343E-02  0.36904756E-03 -0.42517794E-02
 -0.56844717E-04 -0.75702839E-02  0.51408177E-02
 -0.14205834E-02 -0.12357423E-01 -0.17968962E-03
 -0.37120611E-02  0.43390043E-02 -0.27999986E-02
 -0.10938205E-02  0.57601929E-02 -0.21172060E-02
 -0.40609002E-02 -0.82229932E-02  0.29621754E-02
 -0.78278370E-02 -0.17927267E-02  0.37489094E-02
 -0.97528364E-03 -0.66962705E-02 -0.19045449E-02
 -0.64582109E-04  0.37021844E-03 -0.32706625E-02
 -0.24496139E-02  0.11550809E-03  0.34849276E-03
  0.56561326E-02  0.46408228E-02  0.70880994E-02
 -0.31493145E-03 -0.23754232E-02 -0.40516898E-02
 -0.15455731E-02  0.23433299E-02  0.17897269E-02
  0.62158304E-02 -0.30847801E-02 -0.21313478E-02
  0.90528706E-04 -0.14874276E-02  0.14234279E-02
 -0.45729604E-02  0.66527035E-02  0.28215026E-03
 -0.14655920E-02 -0.24903564E-02 -0.67165561E-02
 -0.24861473E-02  0.39985096E-02  0.42649140E-02
 -0.50560031E-02 -0.40355270E-02 -0.30157303E-02
 -0.10158032E-02  0.18335635E-02 -0.30218203E-02
 -0.46581706E-04 -0.58919039E-02  0.21933832E-02
 -0.22501181E-03 -0.38461379E-04  0.68843971E-02
 -0.33874822E-02 -0.78085278E-02  0.26351752E-02
  0.10424411E-01  0.57366462E-02  0.34283870E-02
  0.44408735E-02 -0.56735232E-02  0.45571376E-02
  0.15822657E-02  0.12444200E-01 -0.76704430E-02
 -0.32949451E-02  0.44413580E-02  0.18228509E-03
 -0.70898501E-03  0.52536260E-02  0.28766361E-02
  0.22314504E-02  0.26911572E-02 -0.18448257E-02
  0.54936516E-02  0.70115753E-02 -0.46286101E-02
  0.27095329E-03  0.24460308E-02  0.68811958E-02
  0.55574121E-02  0.67779614E-02  0.70090821E-02
  0.41112924E-02  0.42087886E-02  0.29194610E-03
  0.24959032E-02  0.27355774E-02  0.30009772E-02
 -0.84256947E-05  0.43050338E-02 -0.48408003E-02
 -0.20090622E-03 -0.26242812E-02 -0.51618319E-02
  0.27910733E-02  0.10107471E-02 -0.74525357E-02
  0.22817926E-02 -0.31298656E-02  0.10499615E-01
 -0.46889059E-02  0.19323868E-02  0.13774342E-02
  0.19857556E-02 -0.31534541E-02  0.60526943E-03
  0.50157454E-02 -0.16189978E-02  0.42874321E-02
 -0.64589346E-02 -0.85978834E-04 -0.55376146E-02
 -0.72904156E-02 -0.33552307E-02  0.63883968E-02
  0.97422083E-02  0.23078413E-02 -0.41043543E-02
 -0.48406994E-02 -0.59637764E-02 -0.28019002E-02
  0.21058407E-02  0.32192681E-02 -0.66778971E-02
 
           1
   1.50000000000000     
  0.87866015E-01  0.21556248E-02  0.28986152E-02  0.85338895E-01
  0.52520469E+00  0.41105534E+00  0.74746255E+00
  0.48725031E-02  0.67654146E-01  0.85208121E+00
  0.82184222E+00  0.17471228E+00  0.70815312E+00
  0.81248769E+00  0.85228538E+00  0.28067853E+00
  0.19566035E+00  0.83171550E+00  0.25725848E+00
  0.56325069E+00  0.95113854E+00  0.57912249E+00
  0.45059611E+00  0.83027225E+00  0.82096251E+00
  0.96570397E+00  0.38262562E+00  0.22439069E+00
  0.42868684E+00  0.27337769E-01  0.23414002E+00
  0.68278428E+00  0.15057399E+00  0.99711681E+00
  0.16640401E+00  0.10359254E+00  0.53528870E-01
  0.73268342E+00  0.75867440E+00  0.49699142E+00
  0.51826645E+00  0.53438136E+00  0.90742542E+00
  0.94853263E+00  0.66300481E+00  0.17778516E+00
  0.57158134E+00  0.24793750E+00  0.46168533E+00
  0.39492605E+00  0.28163037E+00  0.92835728E+00
  0.43167416E-01  0.38116776E+00  0.22013959E-01
  0.14559105E+00  0.54182714E+00  0.66833815E+00
  0.21023452E+00  0.55919755E+00  0.98519717E+00
  0.41796485E+00  0.26571827E-01  0.93159772E+00
  0.25740249E+00  0.93883458E+00  0.48355443E+00
  0.40694096E+00  0.28423400E+00  0.14522071E+00
  0.27167549E+00  0.23507289E+00  0.38322252E+00
  0.29389647E+00  0.48381453E+00  0.22824905E+00
  0.46970159E+00  0.75678698E+00  0.20509837E-01
  0.71982813E+00  0.41577722E+00  0.55541039E+00
  0.91271818E+00  0.93228847E+00  0.58595853E+00
  0.25962448E+00  0.37400407E-01  0.67340769E+00
  0.72966719E+00  0.50513741E-01  0.37434516E+00
  0.21475391E+00  0.30482475E+00  0.61100261E+00
  0.45348777E+00  0.66820252E+00  0.67726324E+00
  0.40647913E+00  0.48718371E+00  0.50889794E+00
  0.81782102E+00  0.67648257E+00  0.72328728E+00
  0.93807549E+00  0.15489404E+00  0.48822365E+00
  0.50688359E-01  0.86133271E+00  0.68974029E-01
  0.93288481E-01  0.10818858E+00  0.28934259E+00
  0.76120626E+00  0.90296934E+00  0.93962589E+00
  0.67484531E+00  0.43281082E+00  0.10135808E+00
  0.95270446E+00  0.37872978E+00  0.83208050E+00
  0.61669995E+00  0.90018203E+00  0.13426943E+00
  0.53382212E+00  0.70144457E+00  0.33314136E+00
  0.81088426E+00  0.64599564E+00  0.96604739E+00
  0.81168084E+00  0.14349848E+00  0.16775685E+00
  0.64858820E+00  0.49571077E+00  0.32302806E+00
  0.24035125E-01  0.46723320E+00  0.41240378E+00
  0.15414038E+00  0.71980935E+00  0.49653703E+00
  0.52053733E+00  0.16130293E+00  0.72912986E+00
  0.25490033E-01  0.80951870E+00  0.78411048E+00
  0.00000000E+00  0.00000000E+00  0.00000000E+00
  0.00000000E+00  0.00000000E+00  0.00000000E+00
  0.00000000E+00  0.00000000E+00  0.00000000E+00
  0.00000000E+00  0.00000000E+00  0.00000000E+00
  0.00000000E+00  0.00000000E+00  0.00000000E+00
  0.00000000E+00  0.00000000E+00  0.00000000E+00
  0.00000000E+00  0.00000000E+00  0.00000000E+00
  0.00000000E+00  0.00000000E+00  0.00000000E+00
  0.00000000E+00  0.00000000E+00  0.00000000E+00
  0.00000000E+00  0.00000000E+00  0.00000000E+00
  0.00000000E+00  0.00000000E+00  0.00000000E+00
  0.00000000E+00  0.00000000E+00  0.00000000E+00
  0.00000000E+00  0.00000000E+00  0.00000000E+00
  0.00000000E+00  0.00000000E+00  0.00000000E+00
  0.00000000E+00  0.00000000E+00  0.00000000E+00
  0.00000000E+00  0.00000000E+00  0.00000000E+00
  0.00000000E+00  0.00000000E+00  0.00000000E+00
  0.00000000E+00  0.00000000E+00  0.00000000E+00
  0.00000000E+00  0.00000000E+00  0.00000000E+00
  0.00000000E+00  0.00000000E+00  0.00000000E+00
  0.00000000E+00  0.00000000E+00  0.00000000E+00
  0.00000000E+00  0.00000000E+00  0.00000000E+00
  0.00000000E+00  0.00000000E+00  0.00000000E+00
  0.00000000E+00  0.00000000E+00  0.00000000E+00
  0.00000000E+00  0.00000000E+00  0.00000000E+00
  0.00000000E+00  0.00000000E+00  0.00000000E+00
  0.00000000E+00  0.00000000E+00  0.00000000E+00
  0.00000000E+00  0.00000000E+00  0.00000000E+00
  0.00000000E+00  0.00000000E+00  0.00000000E+00
  0.00000000E+00  0.00000000E+00  0.00000000E+00
  0.00000000E+00  0.00000000E+00  0.00000000E+00
  0.00000000E+00  0.00000000E+00  0.00000000E+00
  0.00000000E+00  0.00000000E+00  0.00000000E+00
  0.00000000E+00  0.00000000E+00  0.00000000E+00
  0.00000000E+00  0.00000000E+00  0.00000000E+00
  0.00000000E+00  0.00000000E+00  0.00000000E+00
  0.00000000E+00  0.00000000E+00  0.00000000E+00
  0.00000000E+00  0.00000000E+00  0.00000000E+00
  0.00000000E+00  0.00000000E+00  0.00000000E+00
  0.00000000E+00  0.00000000E+00  0.00000000E+00
  0.00000000E+00  0.00000000E+00  0.00000000E+00
  0.00000000E+00  0.00000000E+00  0.00000000E+00
  0.00000000E+00  0.00000000E+00  0.00000000E+00
  0.00000000E+00  0.00000000E+00  0.00000000E+00
  0.00000000E+00  0.00000000E+00  0.00000000E+00
  0.00000000E+00  0.00000000E+00  0.00000000E+00
  0.00000000E+00  0.00000000E+00  0.00000000E+00
  0.00000000E+00  0.00000000E+00  0.00000000E+00
  0.00000000E+00  0.00000000E+00  0.00000000E+00
  0.00000000E+00  0.00000000E+00  0.00000000E+00
  0.00000000E+00  0.00000000E+00  0.00000000E+00
  0.00000000E+00  0.00000000E+00  0.00000000E+00
  0.00000000E+00  0.00000000E+00  0.00000000E+00
  0.00000000E+00  0.00000000E+00  0.00000000E+00
  0.00000000E+00  0.00000000E+00  0.00000000E+00
  0.00000000E+00  0.00000000E+00  0.00000000E+00
  0.00000000E+00  0.00000000E+00  0.00000000E+00
  0.00000000E+00  0.00000000E+00  0.00000000E+00
  0.00000000E+00  0.00000000E+00  0.00000000E+00
  0.00000000E+00  0.00000000E+00  0.00000000E+00
  0.00000000E+00  0.00000000E+00  0.00000000E+00
  0.00000000E+00  0.00000000E+00  0.00000000E+00
  0.00000000E+00  0.00000000E+00  0.00000000E+00
  0.00000000E+00  0.00000000E+00  0.00000000E+00
  0.00000000E+00  0.00000000E+00  0.00000000E+00
  0.00000000E+00  0.00000000E+00  0.00000000E+00
  0.00000000E+00  0.00000000E+00  0.00000000E+00
  0.00000000E+00  0.00000000E+00  0.00000000E+00
  0.00000000E+00  0.00000000E+00  0.00000000E+00
  0.00000000E+00  0.00000000E+00  0.00000000E+00
  0.00000000E+00  0.00000000E+00  0.00000000E+00
  0.00000000E+00  0.00000000E+00  0.00000000E+00
  0.00000000E+00  0.00000000E+00  0.00000000E+00
  0.00000000E+00  0.00000000E+00  0.00000000E+00
  0.00000000E+00  0.00000000E+00  0.00000000E+00
  0.00000000E+00  0.00000000E+00  0.00000000E+00
  0.00000000E+00  0.00000000E+00  0.00000000E+00
  0.00000000E+00  0.00000000E+00  0.00000000E+00
  0.00000000E+00  0.00000000E+00  0.00000000E+00
  0.00000000E+00  0.00000000E+00  0.00000000E+00
  0.00000000E+00  0.00000000E+00  0.00000000E+00
  0.00000000E+00  0.00000000E+00  0.00000000E+00
  0.00000000E+00  0.00000000E+00  0.00000000E+00
  0.00000000E+00  0.00000000E+00  0.00000000E+00
  0.00000000E+00  0.00000000E+00  0.00000000E+00
  0.00000000E+00  0.00000000E+00  0.00000000E+00
  0.00000000E+00  0.00000000E+00  0.00000000E+00
  0.00000000E+00  0.00000000E+00  0.00000000E+00
  0.00000000E+00  0.00000000E+00  0.00000000E+00
  0.00000000E+00  0.00000000E+00  0.00000000E+00
  0.00000000E+00  0.00000000E+00  0.00000000E+00
  0.00000000E+00  0.00000000E+00  0.00000000E+00
  0.00000000E+00  0.00000000E+00  0.00000000E+00
  0.00000000E+00  0.00000000E+00  0.00000000E+00
  0.00000000E+00  0.00000000E+00  0.00000000E+00
  0.00000000E+00  0.00000000E+00  0.00000000E+00
