title                                   
   1.00000000000000     
    40.3232547840463411   -6.3728063803747927    8.4097504928370839
    -0.0000000000004559   20.5033726021263334    2.6755047707872301
     0.0000000000002798    0.0000000000004757   58.3921944431114284
   Ru
    32
Direct
  0.3999161197941385  0.1249581892014693  0.1558027517741021
  0.8403933214067680  0.1652868368774976  0.3960852337954132
  0.2128465643934302  0.6208658355279937  0.8278913320255443
  0.5836652857396789  0.1212671413794468  0.3291066164735397
  0.5253787116621559  0.8660793975449774  0.2278436209218947
  0.8429795323161532  0.5639324031267450  0.6396587092024631
  0.8709718599836478  0.9722332982706005  0.6922766727787758
  0.4859418899239645  0.8420479246013475  0.3178204557327691
  0.3048223790583955  0.0629149784861075  0.4581061164948487
  0.8214789255015493  0.0109249189507415  0.1071572904082245
  0.4989990457234898  0.0718094434702428  0.9034124952914718
  0.2399636274722679  0.7378083659699219  0.5271116328428617
  0.3083803205433078  0.3535857441907020  0.3664553027497537
  0.4167595165979621  0.1140501520790149  0.8042601331046714
  0.5179166079296669  0.9107194566507023  0.1462549065217066
  0.2736560847625254  0.2342552819966506  0.0358738879227756
  0.1998289508016588  0.2439235918301120  0.5098957912837512
  0.4886230573623400  0.3629423886928375  0.7579443634470299
  0.4314848784553813  0.9273157913530071  0.1629131986784630
  0.3334090328784458  0.9210970489582164  0.7101907260784389
  0.6321178068810300  0.8156418761882998  0.1865410608433905
  0.3400187268117015  0.0090837566641060  0.4757826217967780
  0.7031963868055900  0.4840876836768118  0.5662841867277091
  0.7669236221612432  0.7604887473999504  0.4432777532941707
  0.6185161017906100  0.2073670946002788  0.6316197258020446
  0.9664861861298255  0.0127085590335283  0.2457459365211681
  0.4844197828141945  0.5532504118691104  0.4848871253616539
  0.9879183124502947  0.9120301177537173  0.0787668468673768
  0.6724529162670165  0.3826326732828305  0.3126113135651725
  0.8328023919708533  0.6122914407791400  0.8889497249177125
  0.3475500099880177  0.3911498016934284  0.8264569218198821
  0.8717263073107564  0.2767627486664357  0.9190620542529946
Lattice velocities
  0.62757058E+00 -0.93727762E-01  0.11312240E+00
  0.92796426E-02  0.33103656E+00  0.49298239E-01
 -0.11980423E-01  0.28579769E-02  0.73982964E+00
 
 -0.19628757E+00  0.85229418E-01  0.10215789E+00
  0.42626209E+00 -0.26993236E+00 -0.43407516E-01
 -0.30389688E+00 -0.51767878E-01  0.61743594E-01
  0.42415673E+00  0.78360610E-01 -0.25047051E+00
  0.36331030E+00  0.26078674E+00 -0.58647331E-01
 -0.12764719E+00 -0.12615611E+00 -0.30447100E+00
 -0.99339158E-01  0.50779795E-01  0.15535566E+00
  0.18944740E+00  0.17460599E+00 -0.18890656E+00
 -0.14083658E+00 -0.13288495E+00  0.13201325E+00
 -0.56152765E-01  0.37700089E-01  0.12504544E+00
  0.94013850E-01  0.21279962E+00  0.34451631E+00
 -0.29759475E-01 -0.90695707E-01  0.41801443E-02
 -0.12845508E+00 -0.49379780E-01 -0.11357108E+00
 -0.29520889E+00  0.40829323E-01 -0.10579732E+00
  0.82814713E-01 -0.72461594E-01 -0.58599985E-01
 -0.84840344E-01  0.38192149E-01  0.84832975E-01
 -0.93247620E-01 -0.19014577E+00  0.46168984E+00
 -0.10676149E+00 -0.61823526E-01  0.17677575E+00
  0.44004235E+00 -0.26836660E+00 -0.29085469E-01
  0.37993818E+00  0.11932919E+00  0.25069295E+00
 -0.19992622E-01  0.11172730E+00  0.31307461E-01
 -0.16857785E+00 -0.91503126E-01 -0.22480183E+00
  0.10911115E-01  0.19164691E+00 -0.52192290E-01
  0.39486694E+00 -0.37816064E-01  0.16224127E+00
 -0.26121800E+00 -0.74799346E-01  0.20362358E+00
  0.15682869E+00  0.42682742E-01 -0.11234827E+00
 -0.25213262E+00  0.20243856E+00  0.75314841E-01
 -0.17080960E+00 -0.12379589E+00 -0.86482767E-01
  0.14952957E+00 -0.51763397E-01 -0.24795871E+00
 -0.19063651E+00  0.29415787E-01 -0.12196598E+00
 -0.51933018E+00  0.34901655E-01  0.31761261E+00
  0.14072567E+00 -0.13774060E-01 -0.68841750E+00
 
           1
   3.00000000000000     
  0.10000000E+01  0.00000000E+00  0.00000000E+00  0.00000000E+00
  0.39991612E+00  0.12495819E+00  0.15580275E+00
  0.84039332E+00  0.16528684E+00  0.39608523E+00
  0.21284656E+00  0.62086584E+00  0.82789133E+00
  0.58366529E+00  0.12126714E+00  0.32910662E+00
  0.52537871E+00  0.86607940E+00  0.22784362E+00
  0.84297953E+00  0.56393240E+00  0.63965871E+00
  0.87097186E+00  0.97223330E+00  0.69227667E+00
  0.48594189E+00  0.84204792E+00  0.31782046E+00
  0.30482238E+00  0.62914978E-01  0.45810612E+00
  0.82147893E+00  0.10924919E-01  0.10715729E+00
  0.49899905E+00  0.71809443E-01  0.90341250E+00
  0.23996363E+00  0.73780837E+00  0.52711163E+00
  0.30838032E+00  0.35358574E+00  0.36645530E+00
  0.41675952E+00  0.11405015E+00  0.80426013E+00
  0.51791661E+00  0.91071946E+00  0.14625491E+00
  0.27365608E+00  0.23425528E+00  0.35873888E-01
  0.19982895E+00  0.24392359E+00  0.50989579E+00
  0.48862306E+00  0.36294239E+00  0.75794436E+00
  0.43148488E+00  0.92731579E+00  0.16291320E+00
  0.33340903E+00  0.92109705E+00  0.71019073E+00
  0.63211781E+00  0.81564188E+00  0.18654106E+00
  0.34001873E+00  0.90837567E-02  0.47578262E+00
  0.70319639E+00  0.48408768E+00  0.56628419E+00
  0.76692362E+00  0.76048875E+00  0.44327775E+00
  0.61851610E+00  0.20736709E+00  0.63161973E+00
  0.96648619E+00  0.12708559E-01  0.24574594E+00
  0.48441978E+00  0.55325041E+00  0.48488713E+00
  0.98791831E+00  0.91203012E+00  0.78766847E-01
  0.67245292E+00  0.38263267E+00  0.31261131E+00
  0.83280239E+00  0.61229144E+00  0.88894972E+00
  0.34755001E+00  0.39114980E+00  0.82645692E+00
  0.87172631E+00  0.27676275E+00  0.91906205E+00
  0.00000000E+00  0.00000000E+00  0.00000000E+00
  0.00000000E+00  0.00000000E+00  0.00000000E+00
  0.00000000E+00  0.00000000E+00  0.00000000E+00
  0.00000000E+00  0.00000000E+00  0.00000000E+00
  0.00000000E+00  0.00000000E+00  0.00000000E+00
  0.00000000E+00  0.00000000E+00  0.00000000E+00
  0.00000000E+00  0.00000000E+00  0.00000000E+00
  0.00000000E+00  0.00000000E+00  0.00000000E+00
  0.00000000E+00  0.00000000E+00  0.00000000E+00
  0.00000000E+00  0.00000000E+00  0.00000000E+00
  0.00000000E+00  0.00000000E+00  0.00000000E+00
  0.00000000E+00  0.00000000E+00  0.00000000E+00
  0.00000000E+00  0.00000000E+00  0.00000000E+00
  0.00000000E+00  0.00000000E+00  0.00000000E+00
  0.00000000E+00  0.00000000E+00  0.00000000E+00
  0.00000000E+00  0.00000000E+00  0.00000000E+00
  0.00000000E+00  0.00000000E+00  0.00000000E+00
  0.00000000E+00  0.00000000E+00  0.00000000E+00
  0.00000000E+00  0.00000000E+00  0.00000000E+00
  0.00000000E+00  0.00000000E+00  0.00000000E+00
  0.00000000E+00  0.00000000E+00  0.00000000E+00
  0.00000000E+00  0.00000000E+00  0.00000000E+00
  0.00000000E+00  0.00000000E+00  0.00000000E+00
  0.00000000E+00  0.00000000E+00  0.00000000E+00
  0.00000000E+00  0.00000000E+00  0.00000000E+00
  0.00000000E+00  0.00000000E+00  0.00000000E+00
  0.00000000E+00  0.00000000E+00  0.00000000E+00
  0.00000000E+00  0.00000000E+00  0.00000000E+00
  0.00000000E+00  0.00000000E+00  0.00000000E+00
  0.00000000E+00  0.00000000E+00  0.00000000E+00
  0.00000000E+00  0.00000000E+00  0.00000000E+00
  0.00000000E+00  0.00000000E+00  0.00000000E+00
  0.00000000E+00  0.00000000E+00  0.00000000E+00
  0.00000000E+00  0.00000000E+00  0.00000000E+00
  0.00000000E+00  0.00000000E+00  0.00000000E+00
  0.00000000E+00  0.00000000E+00  0.00000000E+00
  0.00000000E+00  0.00000000E+00  0.00000000E+00
  0.00000000E+00  0.00000000E+00  0.00000000E+00
  0.00000000E+00  0.00000000E+00  0.00000000E+00
  0.00000000E+00  0.00000000E+00  0.00000000E+00
  0.00000000E+00  0.00000000E+00  0.00000000E+00
  0.00000000E+00  0.00000000E+00  0.00000000E+00
  0.00000000E+00  0.00000000E+00  0.00000000E+00
  0.00000000E+00  0.00000000E+00  0.00000000E+00
  0.00000000E+00  0.00000000E+00  0.00000000E+00
  0.00000000E+00  0.00000000E+00  0.00000000E+00
  0.00000000E+00  0.00000000E+00  0.00000000E+00
  0.00000000E+00  0.00000000E+00  0.00000000E+00
  0.00000000E+00  0.00000000E+00  0.00000000E+00
  0.00000000E+00  0.00000000E+00  0.00000000E+00
  0.00000000E+00  0.00000000E+00  0.00000000E+00
  0.00000000E+00  0.00000000E+00  0.00000000E+00
  0.00000000E+00  0.00000000E+00  0.00000000E+00
  0.00000000E+00  0.00000000E+00  0.00000000E+00
  0.00000000E+00  0.00000000E+00  0.00000000E+00
  0.00000000E+00  0.00000000E+00  0.00000000E+00
  0.00000000E+00  0.00000000E+00  0.00000000E+00
  0.00000000E+00  0.00000000E+00  0.00000000E+00
  0.00000000E+00  0.00000000E+00  0.00000000E+00
  0.00000000E+00  0.00000000E+00  0.00000000E+00
  0.00000000E+00  0.00000000E+00  0.00000000E+00
  0.00000000E+00  0.00000000E+00  0.00000000E+00
  0.00000000E+00  0.00000000E+00  0.00000000E+00
  0.00000000E+00  0.00000000E+00  0.00000000E+00
