Ir_Ru                                   
   1.00000000000000     
     4.8492319999999998    2.0557170000000000   -4.8569709999999997
     3.5699700000000001    8.4679210000000005    3.9896310000000001
     9.4116470000000003   -3.1372160000000000    6.2744309999999999
   Ru
    48
Direct
  0.8109262182447927  0.8878261969092870  0.7165490463312624
  0.4302257664651697  0.9146285243049915  0.5695719543382382
  0.1743782798857845  0.9951183003396381  0.7267259057353215
  0.2035494910378110  0.1966622472768607  0.1768077289497055
  0.4981845615937736  0.8248660035800993  0.3712430149514060
  0.8686452911374569  0.7696997523386209  0.9584009960813300
  0.5792731403099948  0.2253292095324992  0.4651098568504696
  0.2516891055578119  0.5839259043856670  0.0574074975996078
  0.8311362519670757  0.7482454040466446  0.3784021661024862
  0.4771832802819053  0.5534163172878708  0.8398029628824714
  0.3553874534161788  0.9141277285399704  0.1875558303243498
  0.3601727855194077  0.6253347977093705  0.6352233799123297
  0.1653534733113674  0.7553538601832067  0.8178339408370927
  0.1872101508183693  0.4178099696254503  0.9345811825676605
  0.2863916892327887  0.1060431732359338  0.4049758473696787
  0.3279519271273485  0.8676701005991887  0.0260356318451771
  0.0145709002318737  0.7675200404116531  0.1772482120093877
  0.1396640946166142  0.7211208115418549  0.4336210030912419
  0.0749460976137068  0.4582453237301529  0.2747708291402264
  0.9014652487934888  0.2180222146552782  0.4145066197299356
  0.8845803207318375  0.5905156354610894  0.8347560995078749
  0.5979674115943446  0.6160947724743583  0.0306863615943745
  0.0101876750561023  0.9686328536800370  0.9438275524723400
  0.5046444066040956  0.1367527636198266  0.2172574532122474
  0.3517800855893861  0.5949854573531840  0.2325208935748908
  0.1237719118961587  0.4723870449008079  0.6295075519147230
  0.1654485904385112  0.2813269203164350  0.5149258913092862
  0.6668671718996800  0.1345319066966357  0.8305918301545347
  0.0106860516601574  0.2456149172677329  0.7548200584888112
  0.7679274209859179  0.4379976812414392  0.6992188160280727
  0.4413548379303595  0.4725705024298988  0.4349801920651316
  0.0420020128012188  0.9367084121641859  0.5542289422743171
  0.4743002732677729  0.3462878274224194  0.7055722286598597
  0.7979141858600953  0.2619990868961157  0.1868358159835195
  0.6705819006541699  0.7431815844504357  0.2002276703934822
  0.6397311879760529  0.0096977550765375  0.0532166811921207
  0.9880444900490926  0.0153720783045159  0.1937079055716213
  0.8619500995515974  0.2178592935567765  0.9688933102417424
  0.3149059502460436  0.1506458501875418  0.9284645866140958
  0.9379413302277297  0.5061655730807650  0.0793698912562399
  0.6721082864499055  0.4715737470597846  0.2323867948999596
  0.8084616639406729  0.2087147080195387  0.6382320189351800
  0.5154614265639474  0.3722657203203251  0.0203121141361517
  0.7537470684793686  0.4738007271916668  0.4450251666701717
  0.7283526334824956  0.7260819959247909  0.5798216592964281
  0.7676824126016549  0.9989868721422239  0.4117356190061103
  0.4823596683551343  0.1279013410141464  0.6598642143158215
  0.5120588179437960  0.8627744615124916  0.8232843135814123
 
  0.57100024E-02 -0.62604436E-02 -0.77937301E-02
  0.66072461E-02 -0.32826347E-02 -0.62668273E-02
 -0.20826750E-03 -0.12433629E-01  0.12176017E-01
  0.72519155E-02  0.40283747E-02 -0.25371355E-02
 -0.83627833E-03  0.40662957E-02  0.70813363E-02
  0.55304744E-02  0.43485815E-02  0.10631188E-02
  0.31487974E-02  0.71848578E-02 -0.19889509E-02
  0.44983464E-02  0.53760337E-02 -0.11613611E-01
 -0.38614949E-02  0.45681689E-02  0.79677252E-02
  0.54335996E-02  0.19375458E-02 -0.20127269E-02
 -0.39441469E-02  0.19008009E-02 -0.59473126E-02
  0.39081216E-02 -0.61784768E-02 -0.23579898E-02
 -0.62668984E-02  0.17393725E-02  0.74374700E-02
 -0.35830847E-02  0.44939770E-02 -0.68883570E-02
 -0.35094229E-02  0.61477772E-02 -0.14885244E-02
  0.28131691E-02  0.38913897E-02 -0.29568537E-02
 -0.10735049E-01  0.77211462E-03  0.25628777E-03
 -0.54028850E-03  0.26627927E-02 -0.42650184E-02
 -0.90543531E-02 -0.54231279E-02  0.19534972E-02
  0.29249229E-03 -0.12585128E-01 -0.59808874E-03
  0.15777700E-02 -0.98357726E-02 -0.18419192E-02
  0.63769824E-03  0.50404590E-02  0.63090501E-02
  0.38504448E-02  0.28728736E-03  0.39075881E-02
  0.21156222E-02  0.76235075E-02  0.40551708E-02
 -0.42439644E-02  0.42813986E-03  0.88010893E-02
 -0.32854458E-02 -0.54641930E-02 -0.68103173E-02
  0.83782039E-02 -0.30201842E-03  0.60934901E-02
  0.75059473E-02  0.44880635E-02  0.47838005E-02
  0.35369620E-02  0.11076518E-01 -0.25371224E-02
 -0.14285632E-02 -0.31077247E-02 -0.32291638E-02
 -0.87996175E-02 -0.76629725E-02  0.75063224E-02
  0.58042752E-02  0.20847891E-02  0.88566607E-02
  0.63174843E-02  0.39417735E-03 -0.42903608E-02
  0.12515649E-02 -0.49546947E-02 -0.49835866E-02
 -0.12031507E-02 -0.56182149E-03  0.55535739E-02
  0.57810093E-02 -0.48422163E-02  0.18453287E-03
 -0.15858716E-02 -0.58956231E-02 -0.44505362E-02
 -0.70028481E-02  0.75851492E-02 -0.29545102E-02
 -0.59563951E-02  0.11130131E-02 -0.25042419E-02
 -0.28229740E-02 -0.43390180E-02 -0.61796296E-03
  0.31515578E-02  0.20982872E-02 -0.41081897E-02
 -0.11964483E-02  0.45063051E-03 -0.34907437E-03
  0.39982955E-02 -0.35015953E-02 -0.42368131E-02
 -0.28522035E-02 -0.56783561E-02  0.21411530E-02
 -0.54701311E-02  0.27158362E-02  0.71542398E-02
 -0.76509228E-02 -0.75032777E-03 -0.46601088E-02
 -0.54549955E-02 -0.18481236E-02  0.29853702E-02
  0.23918157E-02  0.64039574E-02 -0.19784602E-02
 
           1
   1.50000000000000     
  0.27631011E-02 -0.28893130E-03 -0.86084619E-03  0.33379899E-02
  0.81092622E+00  0.88782620E+00  0.71654905E+00
  0.43022577E+00  0.91462852E+00  0.56957195E+00
  0.17437828E+00  0.99511830E+00  0.72672591E+00
  0.20354949E+00  0.19666225E+00  0.17680773E+00
  0.49818456E+00  0.82486600E+00  0.37124301E+00
  0.86864529E+00  0.76969975E+00  0.95840100E+00
  0.57927314E+00  0.22532921E+00  0.46510986E+00
  0.25168911E+00  0.58392590E+00  0.57407498E-01
  0.83113625E+00  0.74824540E+00  0.37840217E+00
  0.47718328E+00  0.55341632E+00  0.83980296E+00
  0.35538745E+00  0.91412773E+00  0.18755583E+00
  0.36017279E+00  0.62533480E+00  0.63522338E+00
  0.16535347E+00  0.75535386E+00  0.81783394E+00
  0.18721015E+00  0.41780997E+00  0.93458118E+00
  0.28639169E+00  0.10604317E+00  0.40497585E+00
  0.32795193E+00  0.86767010E+00  0.26035632E-01
  0.14570900E-01  0.76752004E+00  0.17724821E+00
  0.13966409E+00  0.72112081E+00  0.43362100E+00
  0.74946098E-01  0.45824532E+00  0.27477083E+00
  0.90146525E+00  0.21802221E+00  0.41450662E+00
  0.88458032E+00  0.59051564E+00  0.83475610E+00
  0.59796741E+00  0.61609477E+00  0.30686362E-01
  0.10187675E-01  0.96863285E+00  0.94382755E+00
  0.50464441E+00  0.13675276E+00  0.21725745E+00
  0.35178009E+00  0.59498546E+00  0.23252089E+00
  0.12377191E+00  0.47238704E+00  0.62950755E+00
  0.16544859E+00  0.28132692E+00  0.51492589E+00
  0.66686717E+00  0.13453191E+00  0.83059183E+00
  0.10686052E-01  0.24561492E+00  0.75482006E+00
  0.76792742E+00  0.43799768E+00  0.69921882E+00
  0.44135484E+00  0.47257050E+00  0.43498019E+00
  0.42002013E-01  0.93670841E+00  0.55422894E+00
  0.47430027E+00  0.34628783E+00  0.70557223E+00
  0.79791419E+00  0.26199909E+00  0.18683582E+00
  0.67058190E+00  0.74318158E+00  0.20022767E+00
  0.63973119E+00  0.96977551E-02  0.53216681E-01
  0.98804449E+00  0.15372078E-01  0.19370791E+00
  0.86195010E+00  0.21785929E+00  0.96889331E+00
  0.31490595E+00  0.15064585E+00  0.92846459E+00
  0.93794133E+00  0.50616557E+00  0.79369891E-01
  0.67210829E+00  0.47157375E+00  0.23238679E+00
  0.80846166E+00  0.20871471E+00  0.63823202E+00
  0.51546143E+00  0.37226572E+00  0.20312114E-01
  0.75374707E+00  0.47380073E+00  0.44502517E+00
  0.72835263E+00  0.72608200E+00  0.57982166E+00
  0.76768241E+00  0.99898687E+00  0.41173562E+00
  0.48235967E+00  0.12790134E+00  0.65986421E+00
  0.51205882E+00  0.86277446E+00  0.82328431E+00
  0.00000000E+00  0.00000000E+00  0.00000000E+00
  0.00000000E+00  0.00000000E+00  0.00000000E+00
  0.00000000E+00  0.00000000E+00  0.00000000E+00
  0.00000000E+00  0.00000000E+00  0.00000000E+00
  0.00000000E+00  0.00000000E+00  0.00000000E+00
  0.00000000E+00  0.00000000E+00  0.00000000E+00
  0.00000000E+00  0.00000000E+00  0.00000000E+00
  0.00000000E+00  0.00000000E+00  0.00000000E+00
  0.00000000E+00  0.00000000E+00  0.00000000E+00
  0.00000000E+00  0.00000000E+00  0.00000000E+00
  0.00000000E+00  0.00000000E+00  0.00000000E+00
  0.00000000E+00  0.00000000E+00  0.00000000E+00
  0.00000000E+00  0.00000000E+00  0.00000000E+00
  0.00000000E+00  0.00000000E+00  0.00000000E+00
  0.00000000E+00  0.00000000E+00  0.00000000E+00
  0.00000000E+00  0.00000000E+00  0.00000000E+00
  0.00000000E+00  0.00000000E+00  0.00000000E+00
  0.00000000E+00  0.00000000E+00  0.00000000E+00
  0.00000000E+00  0.00000000E+00  0.00000000E+00
  0.00000000E+00  0.00000000E+00  0.00000000E+00
  0.00000000E+00  0.00000000E+00  0.00000000E+00
  0.00000000E+00  0.00000000E+00  0.00000000E+00
  0.00000000E+00  0.00000000E+00  0.00000000E+00
  0.00000000E+00  0.00000000E+00  0.00000000E+00
  0.00000000E+00  0.00000000E+00  0.00000000E+00
  0.00000000E+00  0.00000000E+00  0.00000000E+00
  0.00000000E+00  0.00000000E+00  0.00000000E+00
  0.00000000E+00  0.00000000E+00  0.00000000E+00
  0.00000000E+00  0.00000000E+00  0.00000000E+00
  0.00000000E+00  0.00000000E+00  0.00000000E+00
  0.00000000E+00  0.00000000E+00  0.00000000E+00
  0.00000000E+00  0.00000000E+00  0.00000000E+00
  0.00000000E+00  0.00000000E+00  0.00000000E+00
  0.00000000E+00  0.00000000E+00  0.00000000E+00
  0.00000000E+00  0.00000000E+00  0.00000000E+00
  0.00000000E+00  0.00000000E+00  0.00000000E+00
  0.00000000E+00  0.00000000E+00  0.00000000E+00
  0.00000000E+00  0.00000000E+00  0.00000000E+00
  0.00000000E+00  0.00000000E+00  0.00000000E+00
  0.00000000E+00  0.00000000E+00  0.00000000E+00
  0.00000000E+00  0.00000000E+00  0.00000000E+00
  0.00000000E+00  0.00000000E+00  0.00000000E+00
  0.00000000E+00  0.00000000E+00  0.00000000E+00
  0.00000000E+00  0.00000000E+00  0.00000000E+00
  0.00000000E+00  0.00000000E+00  0.00000000E+00
  0.00000000E+00  0.00000000E+00  0.00000000E+00
  0.00000000E+00  0.00000000E+00  0.00000000E+00
  0.00000000E+00  0.00000000E+00  0.00000000E+00
  0.00000000E+00  0.00000000E+00  0.00000000E+00
  0.00000000E+00  0.00000000E+00  0.00000000E+00
  0.00000000E+00  0.00000000E+00  0.00000000E+00
  0.00000000E+00  0.00000000E+00  0.00000000E+00
  0.00000000E+00  0.00000000E+00  0.00000000E+00
  0.00000000E+00  0.00000000E+00  0.00000000E+00
  0.00000000E+00  0.00000000E+00  0.00000000E+00
  0.00000000E+00  0.00000000E+00  0.00000000E+00
  0.00000000E+00  0.00000000E+00  0.00000000E+00
  0.00000000E+00  0.00000000E+00  0.00000000E+00
  0.00000000E+00  0.00000000E+00  0.00000000E+00
  0.00000000E+00  0.00000000E+00  0.00000000E+00
  0.00000000E+00  0.00000000E+00  0.00000000E+00
  0.00000000E+00  0.00000000E+00  0.00000000E+00
  0.00000000E+00  0.00000000E+00  0.00000000E+00
  0.00000000E+00  0.00000000E+00  0.00000000E+00
  0.00000000E+00  0.00000000E+00  0.00000000E+00
  0.00000000E+00  0.00000000E+00  0.00000000E+00
  0.00000000E+00  0.00000000E+00  0.00000000E+00
  0.00000000E+00  0.00000000E+00  0.00000000E+00
  0.00000000E+00  0.00000000E+00  0.00000000E+00
  0.00000000E+00  0.00000000E+00  0.00000000E+00
  0.00000000E+00  0.00000000E+00  0.00000000E+00
  0.00000000E+00  0.00000000E+00  0.00000000E+00
  0.00000000E+00  0.00000000E+00  0.00000000E+00
  0.00000000E+00  0.00000000E+00  0.00000000E+00
  0.00000000E+00  0.00000000E+00  0.00000000E+00
  0.00000000E+00  0.00000000E+00  0.00000000E+00
  0.00000000E+00  0.00000000E+00  0.00000000E+00
  0.00000000E+00  0.00000000E+00  0.00000000E+00
  0.00000000E+00  0.00000000E+00  0.00000000E+00
  0.00000000E+00  0.00000000E+00  0.00000000E+00
  0.00000000E+00  0.00000000E+00  0.00000000E+00
  0.00000000E+00  0.00000000E+00  0.00000000E+00
  0.00000000E+00  0.00000000E+00  0.00000000E+00
  0.00000000E+00  0.00000000E+00  0.00000000E+00
  0.00000000E+00  0.00000000E+00  0.00000000E+00
  0.00000000E+00  0.00000000E+00  0.00000000E+00
  0.00000000E+00  0.00000000E+00  0.00000000E+00
  0.00000000E+00  0.00000000E+00  0.00000000E+00
  0.00000000E+00  0.00000000E+00  0.00000000E+00
  0.00000000E+00  0.00000000E+00  0.00000000E+00
  0.00000000E+00  0.00000000E+00  0.00000000E+00
  0.00000000E+00  0.00000000E+00  0.00000000E+00
  0.00000000E+00  0.00000000E+00  0.00000000E+00
  0.00000000E+00  0.00000000E+00  0.00000000E+00
  0.00000000E+00  0.00000000E+00  0.00000000E+00
  0.00000000E+00  0.00000000E+00  0.00000000E+00
