title                                   
   1.00000000000000     
     8.4130727201152382    3.0492784196737732   -1.2357186049828996
    -0.0000000000001488    6.3368345137258029    1.2135339229268898
     0.0000000000000287    0.0000000000000795   10.8622236894978261
   Ru
    32
Direct
  0.9707691989641664  0.6619209784192206  0.4893459190836617
  0.2376045112687289  0.2049884453027442  0.0081976586534862
  0.5008997367121125  0.5728271744280335  0.7144623462069477
  0.9112242057259243  0.1577371668433534  0.8921522587734146
  0.2050533358498445  0.0598842541243101  0.3360973725853020
  0.0047534781318126  0.4484333103196377  0.8149772431045433
  0.1923601572157485  0.8481796359448978  0.8750520874453899
  0.5004181637400532  0.8820641555537649  0.4203425251033491
  0.0471202499258754  0.8713229762389447  0.6388669678436470
  0.6116637943816312  0.5312110660613016  0.5186292934493038
  0.5270629628034620  0.1719115916049563  0.6551964587525526
  0.4923217939396571  0.7911312829596544  0.0198059307396745
  0.8820241286531086  0.3616595901772438  0.4372860171865946
  0.2472207762987535  0.5385509027598074  0.0648540896991616
  0.7026817890594470  0.2550214952173278  0.2851234004028569
  0.7311645724712647  0.3261365887146764  0.0385903279907286
  0.2598304796062598  0.5689514046209606  0.5876091721810215
  0.7687608561930943  0.7656210033756917  0.6775563658914919
  0.2671901971518438  0.1903080338266569  0.7979333920966791
  0.1518371119182333  0.8080465111313372  0.1483413305789147
  0.7641799186042404  0.7940725563310786  0.2411012536345278
  0.6738774006434052  0.6209872403665908  0.8888735766093340
  0.0510820575415982  0.5183533559200330  0.2391393735425587
  0.7885944207523422  0.1077401371724862  0.5384346011222377
  0.5569117541032248  0.0988258321563593  0.8891904182409306
  0.3955882930509683  0.5693495311767801  0.3085632560793383
  0.4761163816649836  0.1175644653351515  0.1534065320285158
  0.3218941320476605  0.2725479791760064  0.4373694333801310
  0.9413994720308269  0.6438387897662299  0.9889476006702228
  0.9374498231157463  0.9963296171402211  0.2637162174244242
  0.1043963193394548  0.2396973519257511  0.5908730752721602
  0.0050261069976747  0.2598051422493063  0.1206437056936000
Lattice velocities
  0.12336574E-02  0.23196684E-02 -0.84526677E-03
  0.53667948E-02 -0.57063549E-02  0.18322156E-02
 -0.55701375E-03 -0.95978154E-04  0.27628176E-02
 
 -0.11548471E-01 -0.13078817E-02 -0.97346439E-02
  0.49946308E-03  0.74866315E-03 -0.81782931E-02
  0.18876285E-04  0.14410128E-01 -0.30647730E-02
  0.38196750E-02 -0.87626558E-03  0.18548978E-02
  0.11478340E-01  0.67456438E-02  0.84170227E-03
 -0.93641547E-02  0.65133219E-02  0.41282717E-02
  0.20310552E-03  0.81134975E-02 -0.64163030E-02
  0.10991405E-02 -0.39512551E-02 -0.19536593E-02
  0.29458501E-02 -0.57634024E-02  0.51385143E-02
  0.14155193E-01 -0.96521168E-02  0.29666066E-02
  0.36874849E-02 -0.34881538E-02  0.11079770E-01
 -0.66621470E-02 -0.83154145E-03  0.11972876E-01
  0.13399770E-01 -0.38085185E-02 -0.40144993E-02
 -0.55587490E-02 -0.31286230E-02  0.40702584E-02
  0.10583906E-01  0.94316236E-02 -0.23166075E-02
 -0.28857539E-02 -0.36699550E-03 -0.43995748E-03
  0.33784268E-02  0.48954751E-02  0.68026573E-03
 -0.37544609E-02 -0.18578447E-02  0.34972422E-02
 -0.54970185E-02  0.49252401E-02 -0.80197889E-02
  0.18269813E-02  0.28453048E-03  0.32961676E-02
 -0.52276447E-02  0.45601663E-02 -0.47666654E-02
  0.49564464E-04  0.41666188E-02  0.14696240E-01
 -0.97758636E-02 -0.13688586E-01 -0.96087978E-02
 -0.71077397E-02  0.30801880E-02  0.28398924E-02
  0.12344941E-02 -0.19468183E-02 -0.18017056E-02
 -0.17850981E-02 -0.62345258E-02 -0.16732279E-02
  0.33937032E-02 -0.25915773E-02 -0.30957371E-02
  0.24668718E-02 -0.48205847E-02  0.47383158E-02
  0.11335924E-01  0.10956386E-01  0.64982826E-02
  0.24636496E-02  0.89234023E-03 -0.65044225E-03
  0.98116408E-02 -0.19511933E-02  0.43802976E-02
  0.40564933E-02 -0.50886569E-03 -0.62659703E-02
 
           1
   3.00000000000000     
  0.10000000E+01  0.00000000E+00  0.00000000E+00  0.00000000E+00
  0.97076920E+00  0.66192098E+00  0.48934592E+00
  0.23760451E+00  0.20498845E+00  0.81976587E-02
  0.50089974E+00  0.57282717E+00  0.71446235E+00
  0.91122421E+00  0.15773717E+00  0.89215226E+00
  0.20505334E+00  0.59884254E-01  0.33609737E+00
  0.47534781E-02  0.44843331E+00  0.81497724E+00
  0.19236016E+00  0.84817964E+00  0.87505209E+00
  0.50041816E+00  0.88206416E+00  0.42034253E+00
  0.47120250E-01  0.87132298E+00  0.63886697E+00
  0.61166379E+00  0.53121107E+00  0.51862929E+00
  0.52706296E+00  0.17191159E+00  0.65519646E+00
  0.49232179E+00  0.79113128E+00  0.19805931E-01
  0.88202413E+00  0.36165959E+00  0.43728602E+00
  0.24722078E+00  0.53855090E+00  0.64854090E-01
  0.70268179E+00  0.25502150E+00  0.28512340E+00
  0.73116457E+00  0.32613659E+00  0.38590328E-01
  0.25983048E+00  0.56895140E+00  0.58760917E+00
  0.76876086E+00  0.76562100E+00  0.67755637E+00
  0.26719020E+00  0.19030803E+00  0.79793339E+00
  0.15183711E+00  0.80804651E+00  0.14834133E+00
  0.76417992E+00  0.79407256E+00  0.24110125E+00
  0.67387740E+00  0.62098724E+00  0.88887358E+00
  0.51082058E-01  0.51835336E+00  0.23913937E+00
  0.78859442E+00  0.10774014E+00  0.53843460E+00
  0.55691175E+00  0.98825832E-01  0.88919042E+00
  0.39558829E+00  0.56934953E+00  0.30856326E+00
  0.47611638E+00  0.11756447E+00  0.15340653E+00
  0.32189413E+00  0.27254798E+00  0.43736943E+00
  0.94139947E+00  0.64383879E+00  0.98894760E+00
  0.93744982E+00  0.99632962E+00  0.26371622E+00
  0.10439632E+00  0.23969735E+00  0.59087308E+00
  0.50261070E-02  0.25980514E+00  0.12064371E+00
  0.00000000E+00  0.00000000E+00  0.00000000E+00
  0.00000000E+00  0.00000000E+00  0.00000000E+00
  0.00000000E+00  0.00000000E+00  0.00000000E+00
  0.00000000E+00  0.00000000E+00  0.00000000E+00
  0.00000000E+00  0.00000000E+00  0.00000000E+00
  0.00000000E+00  0.00000000E+00  0.00000000E+00
  0.00000000E+00  0.00000000E+00  0.00000000E+00
  0.00000000E+00  0.00000000E+00  0.00000000E+00
  0.00000000E+00  0.00000000E+00  0.00000000E+00
  0.00000000E+00  0.00000000E+00  0.00000000E+00
  0.00000000E+00  0.00000000E+00  0.00000000E+00
  0.00000000E+00  0.00000000E+00  0.00000000E+00
  0.00000000E+00  0.00000000E+00  0.00000000E+00
  0.00000000E+00  0.00000000E+00  0.00000000E+00
  0.00000000E+00  0.00000000E+00  0.00000000E+00
  0.00000000E+00  0.00000000E+00  0.00000000E+00
  0.00000000E+00  0.00000000E+00  0.00000000E+00
  0.00000000E+00  0.00000000E+00  0.00000000E+00
  0.00000000E+00  0.00000000E+00  0.00000000E+00
  0.00000000E+00  0.00000000E+00  0.00000000E+00
  0.00000000E+00  0.00000000E+00  0.00000000E+00
  0.00000000E+00  0.00000000E+00  0.00000000E+00
  0.00000000E+00  0.00000000E+00  0.00000000E+00
  0.00000000E+00  0.00000000E+00  0.00000000E+00
  0.00000000E+00  0.00000000E+00  0.00000000E+00
  0.00000000E+00  0.00000000E+00  0.00000000E+00
  0.00000000E+00  0.00000000E+00  0.00000000E+00
  0.00000000E+00  0.00000000E+00  0.00000000E+00
  0.00000000E+00  0.00000000E+00  0.00000000E+00
  0.00000000E+00  0.00000000E+00  0.00000000E+00
  0.00000000E+00  0.00000000E+00  0.00000000E+00
  0.00000000E+00  0.00000000E+00  0.00000000E+00
  0.00000000E+00  0.00000000E+00  0.00000000E+00
  0.00000000E+00  0.00000000E+00  0.00000000E+00
  0.00000000E+00  0.00000000E+00  0.00000000E+00
  0.00000000E+00  0.00000000E+00  0.00000000E+00
  0.00000000E+00  0.00000000E+00  0.00000000E+00
  0.00000000E+00  0.00000000E+00  0.00000000E+00
  0.00000000E+00  0.00000000E+00  0.00000000E+00
  0.00000000E+00  0.00000000E+00  0.00000000E+00
  0.00000000E+00  0.00000000E+00  0.00000000E+00
  0.00000000E+00  0.00000000E+00  0.00000000E+00
  0.00000000E+00  0.00000000E+00  0.00000000E+00
  0.00000000E+00  0.00000000E+00  0.00000000E+00
  0.00000000E+00  0.00000000E+00  0.00000000E+00
  0.00000000E+00  0.00000000E+00  0.00000000E+00
  0.00000000E+00  0.00000000E+00  0.00000000E+00
  0.00000000E+00  0.00000000E+00  0.00000000E+00
  0.00000000E+00  0.00000000E+00  0.00000000E+00
  0.00000000E+00  0.00000000E+00  0.00000000E+00
  0.00000000E+00  0.00000000E+00  0.00000000E+00
  0.00000000E+00  0.00000000E+00  0.00000000E+00
  0.00000000E+00  0.00000000E+00  0.00000000E+00
  0.00000000E+00  0.00000000E+00  0.00000000E+00
  0.00000000E+00  0.00000000E+00  0.00000000E+00
  0.00000000E+00  0.00000000E+00  0.00000000E+00
  0.00000000E+00  0.00000000E+00  0.00000000E+00
  0.00000000E+00  0.00000000E+00  0.00000000E+00
  0.00000000E+00  0.00000000E+00  0.00000000E+00
  0.00000000E+00  0.00000000E+00  0.00000000E+00
  0.00000000E+00  0.00000000E+00  0.00000000E+00
  0.00000000E+00  0.00000000E+00  0.00000000E+00
  0.00000000E+00  0.00000000E+00  0.00000000E+00
  0.00000000E+00  0.00000000E+00  0.00000000E+00
