title                                   
   1.00000000000000     
    -1.9142207304579930   -1.9135052046758039   -3.8297715698870274
    -3.8285329226392246    0.0002856463071459    3.8296737233069633
    -3.8336691268376568   17.2341894572611913   -5.7483633823453708
   Ir   Ru
     8    24
Direct
  0.5645060517283470  0.6583981015231519  0.0629442774038127
 -0.0017382922914362  0.4988911451282355 -0.0009645887041004
  0.8128469797826821  0.7814809269745228  0.3125202943044272
  0.1240475470522938  0.3109142554876210  0.1258521721048768
  0.7504704486643183  0.8748504156852939  0.7510957394110594
  0.6251471563322208  0.5622712697289893  0.6242161715965902
  0.6235423157215890  0.0617207079632892  0.6238112274820355
  0.1882758804203765  0.2198140168078257  0.6879880953542219
  0.6866229792269920  0.9700636963927347  0.1879216742213052
  0.1273293970000004  0.8147119583118387  0.1257035925570975
  0.3760800717812240  0.9387296982947504  0.3753011055867004
  0.6879104320340992  0.4678751459393020  0.1884410837670377
  0.2488822130716296  0.6249995568229973  0.2499503948976330
  0.5607713793330991  0.1545334074956687  0.0628172294257032
  0.0004267361742334 -0.0000497809256582 -0.0001014764419171
  0.9385547792190820  0.5935271504669151  0.4377984016771641
  0.4973488656741890  0.7486063136500809  0.4990082428174814
  0.0619172959348351  0.9048984165789502  0.5611746026119087
  0.8111090418904009  0.2806802372369723  0.3123809076442945
  0.3744010127236736  0.4369379673286676  0.3754276479268719
  0.2518109890592198  0.1250891988481723  0.2498054472440798
  0.1862003321772532  0.7176597003847391  0.6878161478485558
  0.9391205621739444  0.0946757564502575  0.4372313452468954
  0.4998901544760608  0.2503825697195997  0.4993110157111824
  0.0618800159156776  0.4064459175845326  0.5607364352357144
  0.8764786401853345  0.6877503751634487  0.8750633696163650
  0.4362339440644827  0.8450880025193928  0.9368059316655117
  0.7529549242142757  0.3764689992778487  0.7509198854387892
  0.3131244053892913  0.5318280630146719  0.8131243271181503
  0.8736117766914810  0.1868567615523054  0.8749364775060756
  0.4362471108252149  0.3418374989689729  0.9370716038166135
  0.3139948533539130  0.0320625496239089  0.8138912179078630
 
  0.00000000E+00  0.00000000E+00  0.00000000E+00
  0.00000000E+00  0.00000000E+00  0.00000000E+00
  0.00000000E+00  0.00000000E+00  0.00000000E+00
  0.00000000E+00  0.00000000E+00  0.00000000E+00
  0.00000000E+00  0.00000000E+00  0.00000000E+00
  0.00000000E+00  0.00000000E+00  0.00000000E+00
  0.00000000E+00  0.00000000E+00  0.00000000E+00
  0.00000000E+00  0.00000000E+00  0.00000000E+00
  0.00000000E+00  0.00000000E+00  0.00000000E+00
  0.00000000E+00  0.00000000E+00  0.00000000E+00
  0.00000000E+00  0.00000000E+00  0.00000000E+00
  0.00000000E+00  0.00000000E+00  0.00000000E+00
  0.00000000E+00  0.00000000E+00  0.00000000E+00
  0.00000000E+00  0.00000000E+00  0.00000000E+00
  0.00000000E+00  0.00000000E+00  0.00000000E+00
  0.00000000E+00  0.00000000E+00  0.00000000E+00
  0.00000000E+00  0.00000000E+00  0.00000000E+00
  0.00000000E+00  0.00000000E+00  0.00000000E+00
  0.00000000E+00  0.00000000E+00  0.00000000E+00
  0.00000000E+00  0.00000000E+00  0.00000000E+00
  0.00000000E+00  0.00000000E+00  0.00000000E+00
  0.00000000E+00  0.00000000E+00  0.00000000E+00
  0.00000000E+00  0.00000000E+00  0.00000000E+00
  0.00000000E+00  0.00000000E+00  0.00000000E+00
  0.00000000E+00  0.00000000E+00  0.00000000E+00
  0.00000000E+00  0.00000000E+00  0.00000000E+00
  0.00000000E+00  0.00000000E+00  0.00000000E+00
  0.00000000E+00  0.00000000E+00  0.00000000E+00
  0.00000000E+00  0.00000000E+00  0.00000000E+00
  0.00000000E+00  0.00000000E+00  0.00000000E+00
  0.00000000E+00  0.00000000E+00  0.00000000E+00
  0.00000000E+00  0.00000000E+00  0.00000000E+00
