title                                   
   1.00000000000000     
    -7.6881679882130891   -3.8423312375449674    3.8452089883633409
    -7.6867824112492542    3.8432044584871883   -3.8415658496485778
     7.6886050019149286   -3.8432337982217959   -3.8452382921280250
   Ir   Ru
    16    16
Direct
  0.5015239371431063 -0.0019662898565350 -0.0005179688358335
  0.2524035632306751  0.7511466863254419  0.0013436731609757
  0.7499725959401611  0.7509803801298464  0.4984347442421572
  0.5013415083762063  0.5018804215346412  0.5034224243366924
  0.8742795956064363  0.6247520304592297  0.7523089170233616
  0.6250796593480715  0.3756568625510248  0.7523780947072354
  0.3747171634831816  0.6272255771248527  0.2508916497329463
  0.1236707123843722  0.3758767403105535  0.2503629767580559
  0.6253667461364804  0.3732424714486022  0.2474054087890616
  0.3764405501093288  0.1238402195899141  0.2513323068750959
  0.1246512793010972  0.3721642338942804  0.7478270356373491
  0.8736009240392134  0.1250675264681570  0.7474818332442662
  0.2485283370390148  0.7521122931755347  0.5004993814540376
  0.0012853537418167  0.4995640990714229  0.4986051835325558
  0.2485491586469271  0.2479321822325861 -0.0033814822885817
 -0.0014164811664587  0.0005167562917450  0.0016123129094851
 -0.0012035322383712  0.5018371230985951  0.0007809871395519
  0.7471341141893878  0.2485813597247834 -0.0014638098286735
 -0.0014648384141560 -0.0019655559767591  0.4967675601078420
  0.2500275283289994  0.2481642107993361  0.5009949850948030
  0.3763624120722420  0.1259538716602172  0.7477363960454887
  0.1245501320002384  0.8742759035883340  0.7477880972830643
  0.8753458963196596  0.1232996928258900  0.2502841977938810
  0.6270357574468008  0.8745524420105986  0.2495127135823392
  0.1239900009962722  0.8765215413575116  0.2519430604061826
  0.8739779957028387  0.6259877019289776  0.2482410935209156
  0.6257900569183150  0.8780125896212826  0.7522476011578573
  0.3762712826279971  0.6247015892533773  0.7522609331666569
  0.7510968204551511  0.2481369826057112  0.4992108376156086
  0.4988146270513262 -0.0001232830182125  0.5015353444072435
  0.7511378635439948  0.7515532712453025  0.0032199649736821
  0.5011392796396739  0.5005183685237579 -0.0010664537453036
 
  0.00000000E+00  0.00000000E+00  0.00000000E+00
  0.00000000E+00  0.00000000E+00  0.00000000E+00
  0.00000000E+00  0.00000000E+00  0.00000000E+00
  0.00000000E+00  0.00000000E+00  0.00000000E+00
  0.00000000E+00  0.00000000E+00  0.00000000E+00
  0.00000000E+00  0.00000000E+00  0.00000000E+00
  0.00000000E+00  0.00000000E+00  0.00000000E+00
  0.00000000E+00  0.00000000E+00  0.00000000E+00
  0.00000000E+00  0.00000000E+00  0.00000000E+00
  0.00000000E+00  0.00000000E+00  0.00000000E+00
  0.00000000E+00  0.00000000E+00  0.00000000E+00
  0.00000000E+00  0.00000000E+00  0.00000000E+00
  0.00000000E+00  0.00000000E+00  0.00000000E+00
  0.00000000E+00  0.00000000E+00  0.00000000E+00
  0.00000000E+00  0.00000000E+00  0.00000000E+00
  0.00000000E+00  0.00000000E+00  0.00000000E+00
  0.00000000E+00  0.00000000E+00  0.00000000E+00
  0.00000000E+00  0.00000000E+00  0.00000000E+00
  0.00000000E+00  0.00000000E+00  0.00000000E+00
  0.00000000E+00  0.00000000E+00  0.00000000E+00
  0.00000000E+00  0.00000000E+00  0.00000000E+00
  0.00000000E+00  0.00000000E+00  0.00000000E+00
  0.00000000E+00  0.00000000E+00  0.00000000E+00
  0.00000000E+00  0.00000000E+00  0.00000000E+00
  0.00000000E+00  0.00000000E+00  0.00000000E+00
  0.00000000E+00  0.00000000E+00  0.00000000E+00
  0.00000000E+00  0.00000000E+00  0.00000000E+00
  0.00000000E+00  0.00000000E+00  0.00000000E+00
  0.00000000E+00  0.00000000E+00  0.00000000E+00
  0.00000000E+00  0.00000000E+00  0.00000000E+00
  0.00000000E+00  0.00000000E+00  0.00000000E+00
  0.00000000E+00  0.00000000E+00  0.00000000E+00
