title
1.
7.746240000 0.000000000 -7.746240000
0.000000000 7.746240000 -7.746240000
7.746240000 7.746240000 0.000000000
64
Cartesian
11.619360000 11.659369330 -11.619360000    Ir
11.619360000 13.555920000 -13.555920000    Ir
13.555920000 11.619360000 -13.555920000    Ir
13.555920000 13.555920000 -11.619360000    Ir
11.619360000 7.746240000 -7.746240000    Ir
13.555920000 13.555920000 -15.492480000    Ir
13.555920000 15.492480000 -13.555920000    Ir
7.746240000 11.619360000 -7.746240000    Ir
15.492480000 13.555920000 -13.555920000    Ir
7.746240000 7.746240000 -11.619360000    Ir
11.619360000 9.682800000 -9.682800000    Ir
13.555920000 7.746240000 -9.682800000    Ir
13.555920000 9.682800000 -7.746240000    Ir
7.746240000 13.555920000 -9.682800000    Ir
15.492480000 15.492480000 -15.492480000    Ir
7.746240000 9.682800000 -13.555920000    Ir
9.682800000 11.619360000 -9.682800000    Ir
9.682800000 13.555920000 -7.746240000    Ir
9.682800000 7.746240000 -13.555920000    Ir
9.682800000 9.682800000 -11.619360000    Ir
13.555920000 9.682800000 -11.619360000    Ir
13.555920000 11.619360000 -9.682800000    Ir
7.746240000 7.746240000 -3.873120000    Ir
15.492480000 9.682800000 -9.682800000    Ir
7.746240000 3.873120000 -7.746240000    Ir
9.682800000 13.555920000 -11.619360000    Ir
9.682800000 15.492480000 -9.682800000    Ir
9.682800000 9.682800000 -15.492480000    Ir
9.682800000 11.619360000 -13.555920000    Ir
11.619360000 13.555920000 -9.682800000    Ir
3.873120000 7.746240000 -7.746240000    Ir
11.619360000 9.682800000 -13.555920000    Ir
7.746240000 9.682800000 -5.809680000    Ir
15.492480000 11.619360000 -11.619360000    Ir
7.746240000 5.809680000 -9.682800000    Ir
9.682800000 7.746240000 -5.809680000    Ir
9.682800000 9.682800000 -3.873120000    Ir
9.682800000 3.873120000 -9.682800000    Ir
9.682800000 5.809680000 -7.746240000    Ir
11.619360000 15.492480000 -11.619360000    Ir
3.873120000 9.682800000 -9.682800000    Ir
11.619360000 11.619360000 -15.492480000    Ir
5.809680000 7.746240000 -9.682800000    Ir
5.809680000 9.682800000 -7.746240000    Ir
9.682800000 9.682800000 -7.746240000    Ir
9.682800000 11.619360000 -5.809680000    Ir
9.682800000 5.809680000 -11.619360000    Ir
9.682800000 7.746240000 -9.682800000    Ir
11.619360000 9.682800000 -5.809680000    Ir
3.873120000 3.873120000 -3.873120000    Ir
11.619360000 5.809680000 -9.682800000    Ir
5.809680000 9.682800000 -11.619360000    Ir
5.809680000 11.619360000 -9.682800000    Ir
7.746240000 9.682800000 -9.682800000    Ir
11.619360000 11.619360000 -7.746240000    Ir
3.873120000 5.809680000 -5.809680000    Ir
11.619360000 7.746240000 -11.619360000    Ir
5.809680000 3.873120000 -5.809680000    Ir
5.809680000 5.809680000 -3.873120000    Ir
7.746240000 11.619360000 -11.619360000    Ir
5.809680000 5.809680000 -7.746240000    Ir
5.809680000 7.746240000 -5.809680000    Ir
7.746240000 5.809680000 -5.809680000    Ir
7.746240000 7.746240000 -7.746240000    Ir
