title                                   
   1.00000000000000     
     0.0003530271854809   -3.8470172166263175   -7.6931664762361578
    -0.0000848726150264   -7.6950126866215660    0.0004892143585679
   -15.3839779134858627   -0.0001698622496732    0.0007911788448806
   Ir   Ru
    36    28
Direct
  0.7517878976958557  0.8735237531272838  0.7489023056478745
  0.7505611425347527  0.8733578317068893  0.5001994713764116
  0.7496342422295477  0.8752876121267891  0.0002175466667016
  0.7482881527674649  0.3763576643851954  0.7495531208442370
  0.7503312051896057  0.3762958320099599  0.4995079907422774
  0.7496042455561293  0.3758441565567948  0.2514472703993927
  0.7492548768081465  0.3751504873143742 -0.0006561899715135
  0.2506630621266655  0.6241720205820742  0.5006052784933192
  0.2500981683689281  0.6234926358488565  0.2508183765866953
  0.2514433596901627  0.6236741101667959 -0.0002411924376471
  0.2499185522202508  0.1248971348598165  0.7488607206680903
  0.2487339869182539  0.1263515582038102  0.4998920805596428
  0.2498402608762372  0.1265978430173691  0.2507593828678850
  0.2493153129547515  0.1260670300840545  0.0004838553769656
  0.7488886557924644  0.6248157086924946  0.8748264423597734
  0.7506564029658548  0.6251293025590404  0.1257721434820213
  0.7495446382251533  0.1259711117186427  0.8753110318697062
  0.7510229223405701  0.1239487599164258  0.6250017509891725
  0.7493134359100305  0.1262903661018243  0.3744353596827472
  0.7494699534253348  0.1246255314271349  0.1253591421145380
  0.2509836263869233  0.3761960833185713  0.8747183166060465
  0.2504048437964870  0.8730285078350762  0.8742249338945737
  0.2506694229403714  0.8747417232426694  0.3754181133834917
  0.2496090143831625  0.8751406579154805  0.1246250531421381
  0.4970222442230513  0.5024621852430027  0.6251426078322665
  0.4986617633668988  0.4999098441207052  0.1252187105419206
  0.4993013436188603  0.0004377014666525  0.8748594705507843
  0.5007055736198387 -0.0014634483360300  0.6247518862830957
  0.4996096269241224  0.0001843846457334  0.3748811341593585
  0.5007376937421901  0.0003989670655526  0.1256142770713157
 -0.0007542994660379  0.2503435324611785  0.8749286268744132
  0.0017195985063627  0.2500809178030331  0.6246003175920821
  0.0015123459778208  0.2500432873249632  0.1253832257389651
  0.0016936205609182  0.7490849959039519  0.8742569825387381
  0.0003114797754562  0.7481881365111724  0.3751125585456757
 -0.0010013259675803  0.7496643924565731  0.1254310828724452
  0.7504249637256806  0.8743389037800370  0.2506315177101864
  0.2500218275261160  0.6254039473509120  0.7488863797380930
  0.7503700097566905  0.6253296605888331  0.6245829885024711
  0.7505653646551047  0.6236246584937483  0.3748121470255740
  0.2485972980189683  0.3772124704034139  0.6251799838502402
  0.2495030822937440  0.3751275549547667  0.3749352904334060
  0.2503717127643910  0.3748157695826229  0.1249231659399324
  0.2500372662469227  0.8734693941246103  0.6257599603341025
  0.4996057817555292  0.5001357358142086  0.8745212547825832
  0.5011611906889702  0.4993481777480811  0.3752467236094391
 -0.0010624149455477  0.2523846765080996  0.3750975422121811
  0.0004079702912054  0.7489546918945412  0.6253515545288821
  0.4998664954628905  0.7482920964445302  0.7492343422782805
  0.5015468691925397  0.7484240229198005  0.4999248370490816
  0.5022588784330907  0.7491335250031382  0.2511824737263386
  0.5005243166263540  0.7489115472554523 -0.0003948040691596
  0.4978322724266014  0.2530152214314527  0.7495368035060466
  0.4980812652858152  0.2517932599018354  0.4996141800899868
  0.4984285546471201  0.2505585387906223  0.2507231412323764
  0.4985521451697920  0.2514337100183203  0.0001469849834916
  0.0009212696172004  0.5017408738441665  0.7480237657198598
  0.0000737138369463  0.5000334582177437  0.4999633978456322
 -0.0000698192195877  0.4997560345482974  0.2516067361067919
  0.0008033189333889  0.4996772080966771  0.0004692677146368
  0.0017400963847487 -0.0031937620176420  0.7484146596264929
  0.0007050277053662 -0.0005208406878962  0.5002956894521239
 -0.0007377187874461  0.0005293175402795  0.2511124935906425
 -0.0000877854776012 -0.0000221719345654 -0.0000056634653150
 
  0.00000000E+00  0.00000000E+00  0.00000000E+00
  0.00000000E+00  0.00000000E+00  0.00000000E+00
  0.00000000E+00  0.00000000E+00  0.00000000E+00
  0.00000000E+00  0.00000000E+00  0.00000000E+00
  0.00000000E+00  0.00000000E+00  0.00000000E+00
  0.00000000E+00  0.00000000E+00  0.00000000E+00
  0.00000000E+00  0.00000000E+00  0.00000000E+00
  0.00000000E+00  0.00000000E+00  0.00000000E+00
  0.00000000E+00  0.00000000E+00  0.00000000E+00
  0.00000000E+00  0.00000000E+00  0.00000000E+00
  0.00000000E+00  0.00000000E+00  0.00000000E+00
  0.00000000E+00  0.00000000E+00  0.00000000E+00
  0.00000000E+00  0.00000000E+00  0.00000000E+00
  0.00000000E+00  0.00000000E+00  0.00000000E+00
  0.00000000E+00  0.00000000E+00  0.00000000E+00
  0.00000000E+00  0.00000000E+00  0.00000000E+00
  0.00000000E+00  0.00000000E+00  0.00000000E+00
  0.00000000E+00  0.00000000E+00  0.00000000E+00
  0.00000000E+00  0.00000000E+00  0.00000000E+00
  0.00000000E+00  0.00000000E+00  0.00000000E+00
  0.00000000E+00  0.00000000E+00  0.00000000E+00
  0.00000000E+00  0.00000000E+00  0.00000000E+00
  0.00000000E+00  0.00000000E+00  0.00000000E+00
  0.00000000E+00  0.00000000E+00  0.00000000E+00
  0.00000000E+00  0.00000000E+00  0.00000000E+00
  0.00000000E+00  0.00000000E+00  0.00000000E+00
  0.00000000E+00  0.00000000E+00  0.00000000E+00
  0.00000000E+00  0.00000000E+00  0.00000000E+00
  0.00000000E+00  0.00000000E+00  0.00000000E+00
  0.00000000E+00  0.00000000E+00  0.00000000E+00
  0.00000000E+00  0.00000000E+00  0.00000000E+00
  0.00000000E+00  0.00000000E+00  0.00000000E+00
  0.00000000E+00  0.00000000E+00  0.00000000E+00
  0.00000000E+00  0.00000000E+00  0.00000000E+00
  0.00000000E+00  0.00000000E+00  0.00000000E+00
  0.00000000E+00  0.00000000E+00  0.00000000E+00
  0.00000000E+00  0.00000000E+00  0.00000000E+00
  0.00000000E+00  0.00000000E+00  0.00000000E+00
  0.00000000E+00  0.00000000E+00  0.00000000E+00
  0.00000000E+00  0.00000000E+00  0.00000000E+00
  0.00000000E+00  0.00000000E+00  0.00000000E+00
  0.00000000E+00  0.00000000E+00  0.00000000E+00
  0.00000000E+00  0.00000000E+00  0.00000000E+00
  0.00000000E+00  0.00000000E+00  0.00000000E+00
  0.00000000E+00  0.00000000E+00  0.00000000E+00
  0.00000000E+00  0.00000000E+00  0.00000000E+00
  0.00000000E+00  0.00000000E+00  0.00000000E+00
  0.00000000E+00  0.00000000E+00  0.00000000E+00
  0.00000000E+00  0.00000000E+00  0.00000000E+00
  0.00000000E+00  0.00000000E+00  0.00000000E+00
  0.00000000E+00  0.00000000E+00  0.00000000E+00
  0.00000000E+00  0.00000000E+00  0.00000000E+00
  0.00000000E+00  0.00000000E+00  0.00000000E+00
  0.00000000E+00  0.00000000E+00  0.00000000E+00
  0.00000000E+00  0.00000000E+00  0.00000000E+00
  0.00000000E+00  0.00000000E+00  0.00000000E+00
  0.00000000E+00  0.00000000E+00  0.00000000E+00
  0.00000000E+00  0.00000000E+00  0.00000000E+00
  0.00000000E+00  0.00000000E+00  0.00000000E+00
  0.00000000E+00  0.00000000E+00  0.00000000E+00
  0.00000000E+00  0.00000000E+00  0.00000000E+00
  0.00000000E+00  0.00000000E+00  0.00000000E+00
  0.00000000E+00  0.00000000E+00  0.00000000E+00
  0.00000000E+00  0.00000000E+00  0.00000000E+00
