title                                   
   1.00000000000000     
    -8.2441202980044039    4.7604443265754428   -4.3991987965004817
    -0.0006521693184442    9.5204214952589616   -4.3984839540152834
     1.3744527983389321   -2.3815934034183348   -4.4014448586636643
   Ir   Ru
    24     8
Direct
  0.8138308390504750  0.3137507364363686  0.8772430804444374
  0.6252717021661954  0.6254825094030750  0.7478319201262562
  0.3136070705494119  0.8130640814587963  0.8769112684271666
  0.7495995058453342  0.7488942051745365  0.4985184670078915
  0.8744332312329631  0.8743559927013514  0.2509771107699639
  0.1257019665169539  0.1258578047772273  0.7498287068081777
  0.2485290249242218  0.2494022865954331  0.4972325629413228
  0.6875696842000429  0.1875580881396722  0.1253754498362778
  0.3740229801882205  0.3746753843470802  0.2509971235243722
  0.5006816753377406  0.5016372527394242  0.0028210302943370
  0.1882702591202982  0.6870857379938607  0.1257899267119703
  0.0010893274723264  0.0005297857460007  0.0014537277236672
  0.5830786546520702  0.4183207777544305  0.4995908731699080
  0.0851740368484036  0.9163569500426059  0.4993682687639597
  0.5203194640297036  0.8540525294266721  0.1287283235672775
  0.6449456566477434  0.9791368441138421  0.8722999587425254
  0.8974182494634970  0.2306855730389665  0.3751391004003859
  0.3320378217927651  0.1665705361033803  0.0006308292273038
  0.4576160859232246  0.2912088244556547  0.7489122395056315
  0.1440165135710773  0.4781163538930429  0.8742631832214111
  0.8340950039204880  0.6644871497273953  0.0007641478612157
  0.2707823714424898  0.6045049629724957  0.6223380870929542
  0.9584961746414952  0.7903152990622332  0.7489221883100575
  0.7696977452310826  0.1035649152632554  0.6241098475787739
  0.9372358185641316  0.4374059610773959  0.6231285088839120
  0.4365136943801820  0.9371110634545992  0.6230607614229708
  0.5614824048199429  0.0623038494968526  0.3741113406585873
  0.0620264130450476  0.5614684361813040  0.3735934886910490
  0.7094600020635202  0.5416485352102435  0.2513445827366421
  0.3963228497417430  0.7300958066674618  0.3767944615853601
  0.2093767845717149  0.0418166027139641  0.2509465481515090
  0.0206279882631335  0.3552021642156008  0.1269748852108611
 
  0.00000000E+00  0.00000000E+00  0.00000000E+00
  0.00000000E+00  0.00000000E+00  0.00000000E+00
  0.00000000E+00  0.00000000E+00  0.00000000E+00
  0.00000000E+00  0.00000000E+00  0.00000000E+00
  0.00000000E+00  0.00000000E+00  0.00000000E+00
  0.00000000E+00  0.00000000E+00  0.00000000E+00
  0.00000000E+00  0.00000000E+00  0.00000000E+00
  0.00000000E+00  0.00000000E+00  0.00000000E+00
  0.00000000E+00  0.00000000E+00  0.00000000E+00
  0.00000000E+00  0.00000000E+00  0.00000000E+00
  0.00000000E+00  0.00000000E+00  0.00000000E+00
  0.00000000E+00  0.00000000E+00  0.00000000E+00
  0.00000000E+00  0.00000000E+00  0.00000000E+00
  0.00000000E+00  0.00000000E+00  0.00000000E+00
  0.00000000E+00  0.00000000E+00  0.00000000E+00
  0.00000000E+00  0.00000000E+00  0.00000000E+00
  0.00000000E+00  0.00000000E+00  0.00000000E+00
  0.00000000E+00  0.00000000E+00  0.00000000E+00
  0.00000000E+00  0.00000000E+00  0.00000000E+00
  0.00000000E+00  0.00000000E+00  0.00000000E+00
  0.00000000E+00  0.00000000E+00  0.00000000E+00
  0.00000000E+00  0.00000000E+00  0.00000000E+00
  0.00000000E+00  0.00000000E+00  0.00000000E+00
  0.00000000E+00  0.00000000E+00  0.00000000E+00
  0.00000000E+00  0.00000000E+00  0.00000000E+00
  0.00000000E+00  0.00000000E+00  0.00000000E+00
  0.00000000E+00  0.00000000E+00  0.00000000E+00
  0.00000000E+00  0.00000000E+00  0.00000000E+00
  0.00000000E+00  0.00000000E+00  0.00000000E+00
  0.00000000E+00  0.00000000E+00  0.00000000E+00
  0.00000000E+00  0.00000000E+00  0.00000000E+00
  0.00000000E+00  0.00000000E+00  0.00000000E+00
