title                                   
   1.00000000000000     
    -8.2441202980044039    4.7604443265754428   -4.3991987965004817
    -0.0006521693184442    9.5204214952589616   -4.3984839540152834
     1.3744527983389321   -2.3815934034183348   -4.4014448586636643
   Ir   Ru
    24     8
Direct
  0.8138308390504747  0.3137507364363685  0.8772430804444369
  0.6252717021661951  0.6254825094030778  0.7478319201262593
  0.3136070705494092  0.8130640814587977  0.8769112684271647
  0.7495995058453317  0.7488942051745369  0.4985184670078908
  0.8744332312329632  0.8743559927013536  0.2509771107699663
  0.1257019665169565  0.1258578047772261  0.7498287068081808
  0.2485290249242240  0.2494022865954335  0.4972325629413206
  0.6875696842000423  0.1875580881396743  0.1253754498362767
  0.3740229801882222  0.3746753843470785  0.2509971235243711
  0.5006816753377379  0.5016372527394211  0.0028210302943350
  0.1882702591203014  0.6870857379938613  0.1257899267119669
  0.0010893274723287  0.0005297857460036  0.0014537277236641
  0.5830786546520699  0.4183207777544311  0.4995908731699075
  0.0851740368484002  0.9163569500426050  0.4993682687639591
  0.5203194640297042  0.8540525294266743  0.1287283235672803
  0.6449456566477423  0.9791368441138388  0.8722999587425235
  0.8974182494634988  0.2306855730389685  0.3751391004003892
  0.3320378217927669  0.1665705361033787  0.0006308292273047
  0.4576160859232274  0.2912088244556514  0.7489122395056285
  0.1440165135710743  0.4781163538930429  0.8742631832214087
  0.8340950039204884  0.6644871497273925  0.0007641478612186
  0.2707823714424933  0.6045049629724986  0.6223380870929560
  0.9584961746414962  0.7903152990622360  0.7489221883100541
  0.7696977452310847  0.1035649152632558  0.6241098475787723
  0.9372358185641332  0.4374059610773955  0.6231285088839087
  0.4365136943801815  0.9371110634546014  0.6230607614229697
  0.5614824048199409  0.0623038494968498  0.3741113406585868
  0.0620264130450465  0.5614684361813005  0.3735934886910499
  0.7094600020635227  0.5416485352102427  0.2513445827366425
  0.3963228497417433  0.7300958066674639  0.3767944615853622
  0.2093767845717167  0.0418166027139648  0.2509465481515107
  0.0206279882631364  0.3552021642155978  0.1269748852108634
 
  0.00000000E+00  0.00000000E+00  0.00000000E+00
  0.00000000E+00  0.00000000E+00  0.00000000E+00
  0.00000000E+00  0.00000000E+00  0.00000000E+00
  0.00000000E+00  0.00000000E+00  0.00000000E+00
  0.00000000E+00  0.00000000E+00  0.00000000E+00
  0.00000000E+00  0.00000000E+00  0.00000000E+00
  0.00000000E+00  0.00000000E+00  0.00000000E+00
  0.00000000E+00  0.00000000E+00  0.00000000E+00
  0.00000000E+00  0.00000000E+00  0.00000000E+00
  0.00000000E+00  0.00000000E+00  0.00000000E+00
  0.00000000E+00  0.00000000E+00  0.00000000E+00
  0.00000000E+00  0.00000000E+00  0.00000000E+00
  0.00000000E+00  0.00000000E+00  0.00000000E+00
  0.00000000E+00  0.00000000E+00  0.00000000E+00
  0.00000000E+00  0.00000000E+00  0.00000000E+00
  0.00000000E+00  0.00000000E+00  0.00000000E+00
  0.00000000E+00  0.00000000E+00  0.00000000E+00
  0.00000000E+00  0.00000000E+00  0.00000000E+00
  0.00000000E+00  0.00000000E+00  0.00000000E+00
  0.00000000E+00  0.00000000E+00  0.00000000E+00
  0.00000000E+00  0.00000000E+00  0.00000000E+00
  0.00000000E+00  0.00000000E+00  0.00000000E+00
  0.00000000E+00  0.00000000E+00  0.00000000E+00
  0.00000000E+00  0.00000000E+00  0.00000000E+00
  0.00000000E+00  0.00000000E+00  0.00000000E+00
  0.00000000E+00  0.00000000E+00  0.00000000E+00
  0.00000000E+00  0.00000000E+00  0.00000000E+00
  0.00000000E+00  0.00000000E+00  0.00000000E+00
  0.00000000E+00  0.00000000E+00  0.00000000E+00
  0.00000000E+00  0.00000000E+00  0.00000000E+00
  0.00000000E+00  0.00000000E+00  0.00000000E+00
  0.00000000E+00  0.00000000E+00  0.00000000E+00
