SYSTEM = Ir_Ru
ISTART = 0
ICHARG = 2
PREC = Accurate
ALGO = Very_Fast
SIGMA = 0.1
NELMIN = 5
EDIFFG = 1E-05
#VOSKOWN = 1
#ISPIN = 2
ISMEAR=-5
IBRION=-1
ISIF=2
