title
1.
-8.505014000 4.910370000 -4.629534000
0.000002000 9.820740000 -4.629534000
1.417502000 -2.455185000 -4.629534000
24 8
Cartesian
-5.670009000 4.910370000 -9.259068000    Ir
-4.252506000 7.365555000 -9.259068000    Ir
-1.417501000 7.365555000 -9.259068000    Ir
-5.670008000 9.820740000 -9.259068000    Ir
-7.087510000 12.275925000 -9.259068000    Ir
0.000000000 0.000000000 -4.629534000    Ir
-1.417502000 2.455185000 -4.629534000    Ir
-5.670009000 4.910370000 -4.629534000    Ir
-2.835004000 4.910370000 -4.629534000    Ir
-2.835004000 4.910370000 -9.259068000    Ir
-1.417501000 7.365555000 -4.629534000    Ir
-7.087510000 12.275925000 -13.888602000    Ir
-4.252504916 5.728764182 -6.944301000    Ir
0.000003084 8.183949182 -6.944301000    Ir
-4.252503916 10.639134182 -6.944301000    Ir
-4.252503916 10.639134182 -11.573835000    Ir
-7.087509916 5.728764182 -6.944301000    Ir
-1.417500916 0.818394182 -6.944301000    Ir
-2.835002916 3.273579182 -6.944301000    Ir
0.000002084 3.273579182 -6.944301000    Ir
-5.670006916 8.183949182 -11.573835000    Ir
-1.417499916 5.728764182 -6.944301000    Ir
-7.087508916 10.639134182 -11.573835000    Ir
-5.670007916 3.273579182 -6.944301000    Ir
-7.087511000 7.365555000 -9.259068000    Ru
-2.835003000 9.820740000 -9.259068000    Ru
-4.252507000 2.455185000 -4.629534000    Ru
0.000001000 4.910370000 -4.629534000    Ru
-5.670006916 8.183949182 -6.944301000    Ru
-2.835001916 8.183949182 -6.944301000    Ru
-1.417500916 0.818394182 -2.314767000    Ru
0.000002084 3.273579182 -2.314767000    Ru
