title                                   
   1.00000000000000     
    -7.6952951556616043   -3.8497608786130844    3.8512781042958206
     7.6979470366170348   -3.8531105185791139    3.8532339937355768
    -0.0003484686620343    3.8510050837700196    3.8518254583204370
   Ir   Ru
    20    12
Direct
  0.4997008448841029  0.4983426084360758  0.4993975482157893
  0.2513031004249839  0.7505622919845578  0.4978959344219049
  0.9997042873915447  0.4983793829279364  0.9993622254389791
  0.7490459950988040  0.7504577361141429  0.9993781545174940
  0.9994707869612611  0.7504287466157464  0.7493252976095448
  0.2494415142281667  0.4978519354690079  0.7507910301212632
  0.0008980897687323  0.2496665085872252  0.2507761311781849
  0.7486392248779552  0.4975141856508856  0.2508048583189293
  0.0007448617799071  0.7517865406324518  0.2505604160410257
  0.7490965879739022  0.0006664882295695  0.2508629708615402
  0.5007598080377775  0.7517830414731392  0.7505889354650535
  0.2513927234896087  0.0025324329217185  0.7509216669148486
  0.0009244774991117  0.0021118904195347  0.9992831744446491
  0.7481653165878157  0.2488377690416144  0.9977671458766935
  0.4991159251712318  0.4979693440510857  0.0005938577575577
  0.2517975465733429  0.7511463025961405  0.0015725459115004
  0.5009069762122280  0.0020523724257728  0.4993196030970637
  0.2500586570580339  0.2490838938587032  0.4990778937312044
  0.9991104992150213  0.4979069141915247  0.5005781852396396
  0.7496184745418759  0.7509363420526753  0.5003351670366030
  0.0000530664572196  0.0013472260491056  0.5010097315192894
  0.7489217693528474  0.2495545628950708  0.5026275647092646
  0.5000912037359910  0.0013413689023949  0.0009238921230548
  0.2509763976513142  0.2497392712632092  0.0009735076897357
  0.7505502578091097  0.0018806631319279  0.7492675657730175
  0.5007831761222050  0.2495863349280043  0.7509299516254018
  0.4995866957160189  0.7504975000838243  0.2492723884211401
  0.2514488806928270  0.0020670412241444  0.2491600558864278
  0.4990582266679198  0.2483992486116477  0.2489079691350042
  0.2507102986180314  0.4994429197834407  0.2493609754829933
  0.9990542256730635  0.2482792708136401  0.7490291507313174
  0.7488701037280308  0.4978478646340747  0.7493445047039060
 
  0.00000000E+00  0.00000000E+00  0.00000000E+00
  0.00000000E+00  0.00000000E+00  0.00000000E+00
  0.00000000E+00  0.00000000E+00  0.00000000E+00
  0.00000000E+00  0.00000000E+00  0.00000000E+00
  0.00000000E+00  0.00000000E+00  0.00000000E+00
  0.00000000E+00  0.00000000E+00  0.00000000E+00
  0.00000000E+00  0.00000000E+00  0.00000000E+00
  0.00000000E+00  0.00000000E+00  0.00000000E+00
  0.00000000E+00  0.00000000E+00  0.00000000E+00
  0.00000000E+00  0.00000000E+00  0.00000000E+00
  0.00000000E+00  0.00000000E+00  0.00000000E+00
  0.00000000E+00  0.00000000E+00  0.00000000E+00
  0.00000000E+00  0.00000000E+00  0.00000000E+00
  0.00000000E+00  0.00000000E+00  0.00000000E+00
  0.00000000E+00  0.00000000E+00  0.00000000E+00
  0.00000000E+00  0.00000000E+00  0.00000000E+00
  0.00000000E+00  0.00000000E+00  0.00000000E+00
  0.00000000E+00  0.00000000E+00  0.00000000E+00
  0.00000000E+00  0.00000000E+00  0.00000000E+00
  0.00000000E+00  0.00000000E+00  0.00000000E+00
  0.00000000E+00  0.00000000E+00  0.00000000E+00
  0.00000000E+00  0.00000000E+00  0.00000000E+00
  0.00000000E+00  0.00000000E+00  0.00000000E+00
  0.00000000E+00  0.00000000E+00  0.00000000E+00
  0.00000000E+00  0.00000000E+00  0.00000000E+00
  0.00000000E+00  0.00000000E+00  0.00000000E+00
  0.00000000E+00  0.00000000E+00  0.00000000E+00
  0.00000000E+00  0.00000000E+00  0.00000000E+00
  0.00000000E+00  0.00000000E+00  0.00000000E+00
  0.00000000E+00  0.00000000E+00  0.00000000E+00
  0.00000000E+00  0.00000000E+00  0.00000000E+00
  0.00000000E+00  0.00000000E+00  0.00000000E+00
