title                                   
   1.00000000000000     
    -7.6952951556616043   -3.8497608786130844    3.8512781042958206
     7.6979470366170348   -3.8531105185791139    3.8532339937355768
    -0.0003484686620343    3.8510050837700196    3.8518254583204370
   Ir   Ru
    20    12
Direct
  0.4997008448841062  0.4983426084360755  0.4993975482157861
  0.2513031004249847  0.7505622919845564  0.4978959344219031
 -0.0002957126084586  0.4983793829279366 -0.0006377745610210
  0.7490459950988044  0.7504577361141428 -0.0006218454825064
 -0.0005292130387355  0.7504287466157478  0.7493252976095475
  0.2494415142281668  0.4978519354690045  0.7507910301212631
  0.0008980897687303  0.2496665085872253  0.2507761311781854
  0.7486392248779523  0.4975141856508887  0.2508048583189286
  0.0007448617799053  0.7517865406324544  0.2505604160410262
  0.7490965879739023  0.0006664882295666  0.2508629708615368
  0.5007598080377786  0.7517830414731411  0.7505889354650539
  0.2513927234896110  0.0025324329217156  0.7509216669148480
  0.0009244774991084  0.0021118904195371 -0.0007168255553526
  0.7481653165878193  0.2488377690416138 -0.0022328541233067
  0.4991159251712339  0.4979693440510868  0.0005938577575591
  0.2517975465733422  0.7511463025961431  0.0015725459114987
  0.5009069762122266  0.0020523724257723  0.4993196030970605
  0.2500586570580371  0.2490838938587055  0.4990778937312030
 -0.0008895007849761  0.4979069141915281  0.5005781852396414
  0.7496184745418770  0.7509363420526758  0.5003351670366021
  0.0000530664572227  0.0013472260491028  0.5010097315192894
  0.7489217693528507  0.2495545628950717  0.5026275647092661
  0.5000912037359901  0.0013413689023948  0.0009238921230577
  0.2509763976513174  0.2497392712632097  0.0009735076897324
  0.7505502578091064  0.0018806631319308  0.7492675657730143
  0.5007831761222039  0.2495863349280072  0.7509299516254018
  0.4995866957160159  0.7504975000838211  0.2492723884211383
  0.2514488806928294  0.0020670412241442  0.2491600558864301
  0.4990582266679185  0.2483992486116496  0.2489079691350030
  0.2507102986180298  0.4994429197834378  0.2493609754829900
 -0.0009457743269346  0.2482792708136369  0.7490291507313160
  0.7488701037280334  0.4978478646340750  0.7493445047039046
 
  0.00000000E+00  0.00000000E+00  0.00000000E+00
  0.00000000E+00  0.00000000E+00  0.00000000E+00
  0.00000000E+00  0.00000000E+00  0.00000000E+00
  0.00000000E+00  0.00000000E+00  0.00000000E+00
  0.00000000E+00  0.00000000E+00  0.00000000E+00
  0.00000000E+00  0.00000000E+00  0.00000000E+00
  0.00000000E+00  0.00000000E+00  0.00000000E+00
  0.00000000E+00  0.00000000E+00  0.00000000E+00
  0.00000000E+00  0.00000000E+00  0.00000000E+00
  0.00000000E+00  0.00000000E+00  0.00000000E+00
  0.00000000E+00  0.00000000E+00  0.00000000E+00
  0.00000000E+00  0.00000000E+00  0.00000000E+00
  0.00000000E+00  0.00000000E+00  0.00000000E+00
  0.00000000E+00  0.00000000E+00  0.00000000E+00
  0.00000000E+00  0.00000000E+00  0.00000000E+00
  0.00000000E+00  0.00000000E+00  0.00000000E+00
  0.00000000E+00  0.00000000E+00  0.00000000E+00
  0.00000000E+00  0.00000000E+00  0.00000000E+00
  0.00000000E+00  0.00000000E+00  0.00000000E+00
  0.00000000E+00  0.00000000E+00  0.00000000E+00
  0.00000000E+00  0.00000000E+00  0.00000000E+00
  0.00000000E+00  0.00000000E+00  0.00000000E+00
  0.00000000E+00  0.00000000E+00  0.00000000E+00
  0.00000000E+00  0.00000000E+00  0.00000000E+00
  0.00000000E+00  0.00000000E+00  0.00000000E+00
  0.00000000E+00  0.00000000E+00  0.00000000E+00
  0.00000000E+00  0.00000000E+00  0.00000000E+00
  0.00000000E+00  0.00000000E+00  0.00000000E+00
  0.00000000E+00  0.00000000E+00  0.00000000E+00
  0.00000000E+00  0.00000000E+00  0.00000000E+00
  0.00000000E+00  0.00000000E+00  0.00000000E+00
  0.00000000E+00  0.00000000E+00  0.00000000E+00
