title                                   
   1.00000000000000     
     0.0000209653238710   -3.8396011341418430   -7.6792455944085329
    -0.0002191741020718   -7.6802746331198799    0.0005362333203917
   -15.3540757941865795   -0.0004387759829647    0.0002609526879911
   Ir   Ru
    28    36
Direct
  0.7496425137571410  0.8760265863981911  0.2490054611776559
  0.2496498668423040  0.6249324587235591  0.7512850590054311
  0.7497339071351296  0.6243251579355105  0.6253467624741842
  0.7496814835369581  0.6260443682094320  0.3753168869891694
  0.2509577240608893  0.3725589696531136  0.6246890033899144
  0.2503257131088814  0.3750110316010435  0.3750116448414214
  0.2496765200015467  0.3753421052715391  0.1248275802943207
  0.2505260289967323  0.8767315101144560  0.6243960302253296
  0.5007948890489655  0.4995664535186228  0.8756175735571701
  0.4988805988417064  0.5005159529469283  0.3747710423369401
  0.0011272043220547  0.2474291675584308  0.3750054796074891
 -0.0008073694237432  0.7515402162492629  0.6246691848782232
  0.5001786681305241  0.7514112908289351  0.7506639631559261
  0.4990533254058295  0.7510479169358786  0.4999313650663393
  0.4984096593700874  0.7505007935369640  0.2490405207022400
  0.4994441722693466  0.7507405618714933  0.0002896622881739
  0.5016062480084692  0.2478300107376812  0.7503028506791353
  0.5018116987340857  0.2485313530136984  0.5003081926090984
  0.5009333283726746  0.2498365372471905  0.2493282249291692
  0.5010252890842907  0.2489246123339852  0.0000740513804777
 -0.0004795899729281  0.4986691971500486  0.7514873912991041
  0.0000512409054972  0.4998590695134983  0.5000064363368820
 -0.0001490087223328  0.5000559419416317  0.2488403741928373
 -0.0006076074188723  0.5001583304205177 -0.0002330155710688
 -0.0010511493271684  0.0020298164455104  0.7511485653503269
 -0.0006752583249034  0.0004090024422407  0.4996195076702479
  0.0005989597188274 -0.0003746908571355  0.2491250770214025
 -0.0000481318301120  0.0001731788524974  0.0000140044297770
  0.7481493200217774  0.8766099890636474  0.7515236904346131
  0.7492457226688712  0.8773058054122818  0.4998487285575075
  0.7502899290328197  0.8743927093554628 -0.0003287285457013
  0.7521121831592265  0.3730246840089438  0.7504838255626414
  0.7497309497181814  0.3731757505053890  0.5006081701086985
  0.7503316207422532  0.3741596344040199  0.2481280494921878
  0.7506001107685004  0.3750794309768817  0.0005916302166718
  0.2493602664108833  0.6261283575901567  0.4994711133025810
  0.2499053732861314  0.6269669681999527  0.2489752751644285
  0.2481965926597381  0.6266800954483145  0.0001960769823795
  0.2504295259516947  0.1251683752993061  0.7513780039582046
  0.2519811793840483  0.1233808064218156  0.5002524453201747
  0.2500760621034243  0.1231965186707064  0.2489735829604349
  0.2506658567883460  0.1240369140453784 -0.0006509261512479
  0.7510228966112643  0.6257756960931645  0.8750525351400905
  0.7496116141486053  0.6242197724826958  0.1242827869690235
  0.7503323586367937  0.1236222329765034  0.8746541682622224
  0.7489719666811585  0.1264937044491924  0.6249062664280600
  0.7503803100333734  0.1237651731137977  0.3758033249750478
  0.7504398286746099  0.1255835431617361  0.1247228734568904
  0.2489141787219322  0.3735160904056645  0.8753860486368186
  0.2497110660083691  0.8771290642360486  0.8757012493888974
  0.2497462827778284  0.8748141916756642  0.3746449484642286
  0.2503317956265586  0.8744324683005816  0.1252922207962129
  0.5033586949016261  0.4973175941838252  0.6249454145436415
  0.5015843739531685  0.5003334757748340  0.1247573753379214
  0.5000088450830830 -0.0000099132804695  0.8752605503637655
  0.4989264797983395  0.0014364384314254  0.6251505069121112
  0.5000178116839058 -0.0000743588945880  0.3751580705783260
  0.4986587101480895 -0.0003691615432512  0.1245184822484355
  0.0010999880683782  0.2494102849472103  0.8749741439716090
 -0.0019228333889724  0.2498798867909475  0.6254585851755980
 -0.0016098499338225  0.2497982628234950  0.1245749431339699
 -0.0022140394157557  0.7510163107189688  0.8758653752828066
  0.0000224532874055  0.7522371246499023  0.3749435103161328
  0.0012414505662844  0.7505391785056698  0.1246068019372980
 
  0.00000000E+00  0.00000000E+00  0.00000000E+00
  0.00000000E+00  0.00000000E+00  0.00000000E+00
  0.00000000E+00  0.00000000E+00  0.00000000E+00
  0.00000000E+00  0.00000000E+00  0.00000000E+00
  0.00000000E+00  0.00000000E+00  0.00000000E+00
  0.00000000E+00  0.00000000E+00  0.00000000E+00
  0.00000000E+00  0.00000000E+00  0.00000000E+00
  0.00000000E+00  0.00000000E+00  0.00000000E+00
  0.00000000E+00  0.00000000E+00  0.00000000E+00
  0.00000000E+00  0.00000000E+00  0.00000000E+00
  0.00000000E+00  0.00000000E+00  0.00000000E+00
  0.00000000E+00  0.00000000E+00  0.00000000E+00
  0.00000000E+00  0.00000000E+00  0.00000000E+00
  0.00000000E+00  0.00000000E+00  0.00000000E+00
  0.00000000E+00  0.00000000E+00  0.00000000E+00
  0.00000000E+00  0.00000000E+00  0.00000000E+00
  0.00000000E+00  0.00000000E+00  0.00000000E+00
  0.00000000E+00  0.00000000E+00  0.00000000E+00
  0.00000000E+00  0.00000000E+00  0.00000000E+00
  0.00000000E+00  0.00000000E+00  0.00000000E+00
  0.00000000E+00  0.00000000E+00  0.00000000E+00
  0.00000000E+00  0.00000000E+00  0.00000000E+00
  0.00000000E+00  0.00000000E+00  0.00000000E+00
  0.00000000E+00  0.00000000E+00  0.00000000E+00
  0.00000000E+00  0.00000000E+00  0.00000000E+00
  0.00000000E+00  0.00000000E+00  0.00000000E+00
  0.00000000E+00  0.00000000E+00  0.00000000E+00
  0.00000000E+00  0.00000000E+00  0.00000000E+00
  0.00000000E+00  0.00000000E+00  0.00000000E+00
  0.00000000E+00  0.00000000E+00  0.00000000E+00
  0.00000000E+00  0.00000000E+00  0.00000000E+00
  0.00000000E+00  0.00000000E+00  0.00000000E+00
  0.00000000E+00  0.00000000E+00  0.00000000E+00
  0.00000000E+00  0.00000000E+00  0.00000000E+00
  0.00000000E+00  0.00000000E+00  0.00000000E+00
  0.00000000E+00  0.00000000E+00  0.00000000E+00
  0.00000000E+00  0.00000000E+00  0.00000000E+00
  0.00000000E+00  0.00000000E+00  0.00000000E+00
  0.00000000E+00  0.00000000E+00  0.00000000E+00
  0.00000000E+00  0.00000000E+00  0.00000000E+00
  0.00000000E+00  0.00000000E+00  0.00000000E+00
  0.00000000E+00  0.00000000E+00  0.00000000E+00
  0.00000000E+00  0.00000000E+00  0.00000000E+00
  0.00000000E+00  0.00000000E+00  0.00000000E+00
  0.00000000E+00  0.00000000E+00  0.00000000E+00
  0.00000000E+00  0.00000000E+00  0.00000000E+00
  0.00000000E+00  0.00000000E+00  0.00000000E+00
  0.00000000E+00  0.00000000E+00  0.00000000E+00
  0.00000000E+00  0.00000000E+00  0.00000000E+00
  0.00000000E+00  0.00000000E+00  0.00000000E+00
  0.00000000E+00  0.00000000E+00  0.00000000E+00
  0.00000000E+00  0.00000000E+00  0.00000000E+00
  0.00000000E+00  0.00000000E+00  0.00000000E+00
  0.00000000E+00  0.00000000E+00  0.00000000E+00
  0.00000000E+00  0.00000000E+00  0.00000000E+00
  0.00000000E+00  0.00000000E+00  0.00000000E+00
  0.00000000E+00  0.00000000E+00  0.00000000E+00
  0.00000000E+00  0.00000000E+00  0.00000000E+00
  0.00000000E+00  0.00000000E+00  0.00000000E+00
  0.00000000E+00  0.00000000E+00  0.00000000E+00
  0.00000000E+00  0.00000000E+00  0.00000000E+00
  0.00000000E+00  0.00000000E+00  0.00000000E+00
  0.00000000E+00  0.00000000E+00  0.00000000E+00
  0.00000000E+00  0.00000000E+00  0.00000000E+00
