title
1.
7.618980000 0.000000000 7.618980000
7.618980000 7.618980000 0.000000000
0.000000000 7.618980000 7.618980000
64
Cartesian
3.809490000 9.563724645 9.523725000    Ru
9.523725000 3.809490000 9.523725000    Ru
9.523725000 9.523725000 3.809490000    Ru
3.809490000 3.809490000 3.809490000    Ru
7.618980000 13.333215000 9.523725000    Ru
13.333215000 7.618980000 9.523725000    Ru
5.714235000 5.714235000 3.809490000    Ru
7.618980000 7.618980000 3.809490000    Ru
7.618980000 9.523725000 13.333215000    Ru
5.714235000 3.809490000 5.714235000    Ru
13.333215000 9.523725000 7.618980000    Ru
7.618980000 3.809490000 7.618980000    Ru
3.809490000 5.714235000 5.714235000    Ru
9.523725000 7.618980000 13.333215000    Ru
9.523725000 13.333215000 7.618980000    Ru
3.809490000 7.618980000 7.618980000    Ru
7.618980000 5.714235000 5.714235000    Ru
5.714235000 7.618980000 5.714235000    Ru
5.714235000 5.714235000 7.618980000    Ru
7.618980000 7.618980000 7.618980000    Ru
11.428470000 13.333215000 13.333215000    Ru
9.523725000 7.618980000 5.714235000    Ru
9.523725000 5.714235000 7.618980000    Ru
11.428470000 7.618980000 7.618980000    Ru
7.618980000 9.523725000 5.714235000    Ru
13.333215000 11.428470000 13.333215000    Ru
5.714235000 9.523725000 7.618980000    Ru
7.618980000 11.428470000 7.618980000    Ru
11.428470000 9.523725000 5.714235000    Ru
9.523725000 11.428470000 5.714235000    Ru
9.523725000 9.523725000 7.618980000    Ru
11.428470000 11.428470000 7.618980000    Ru
7.618980000 5.714235000 9.523725000    Ru
5.714235000 7.618980000 9.523725000    Ru
13.333215000 13.333215000 11.428470000    Ru
7.618980000 7.618980000 11.428470000    Ru
11.428470000 5.714235000 9.523725000    Ru
9.523725000 7.618980000 9.523725000    Ru
9.523725000 5.714235000 11.428470000    Ru
11.428470000 7.618980000 11.428470000    Ru
7.618980000 9.523725000 9.523725000    Ru
5.714235000 11.428470000 9.523725000    Ru
5.714235000 9.523725000 11.428470000    Ru
7.618980000 11.428470000 11.428470000    Ru
11.428470000 9.523725000 9.523725000    Ru
9.523725000 11.428470000 9.523725000    Ru
9.523725000 9.523725000 11.428470000    Ru
11.428470000 11.428470000 11.428470000    Ru
15.237960000 9.523725000 9.523725000    Ru
13.333215000 11.428470000 9.523725000    Ru
13.333215000 9.523725000 11.428470000    Ru
15.237960000 11.428470000 11.428470000    Ru
11.428470000 13.333215000 9.523725000    Ru
9.523725000 15.237960000 9.523725000    Ru
9.523725000 13.333215000 11.428470000    Ru
11.428470000 15.237960000 11.428470000    Ru
11.428470000 9.523725000 13.333215000    Ru
9.523725000 11.428470000 13.333215000    Ru
9.523725000 9.523725000 15.237960000    Ru
11.428470000 11.428470000 15.237960000    Ru
15.237960000 13.333215000 13.333215000    Ru
13.333215000 15.237960000 13.333215000    Ru
13.333215000 13.333215000 15.237960000    Ru
15.237960000 15.237960000 15.237960000    Ru
