title                                   
   1.00000000000000     
    -1.9295504938071657   -1.9289431869257772   -3.8570219062818385
    -3.8582865050060180   -0.0001313375904208    3.8566811617543730
    -3.8611271938233180   17.3683530767073826   -5.7884539469198995
   Ir   Ru
    24     8
Direct
  0.6879612876668810  0.9681103427008731  0.1871303685925563
  0.1235803730434454  0.8102801113717584  0.1242735779511457
  0.3744523125371804  0.9366729594858688  0.3745779669263911
  0.6872711591442012  0.4691332637247391  0.1861348329960406
  0.2491730232570731  0.6246655992453156  0.2498261704814395
  0.5639149344164678  0.1581501012602267  0.0621066351527100
 -0.0001147189361109 -0.0000431999392909  0.0003783540036758
  0.9372620183203284  0.5943766842910391  0.4372436672376366
  0.5012907970197590  0.7504762747379112  0.5010068029223507
  0.0624614933880525  0.9073969173374610  0.5638957737970519
  0.8127137977725358  0.2811435815275907  0.3125670584464564
  0.3759878106839787  0.4383857419460446  0.3745232873251774
  0.2484687568111833  0.1246884806530136  0.2496373745115814
  0.1883931051311719  0.7195546740244674  0.6874396533177656
  0.9370231541974839  0.0931070003895969  0.4380122735371883
  0.5014731248731101  0.2506220421522330  0.5008685007488903
  0.0633037552248727  0.4063605651317223  0.5647460825371851
  0.8752072924650198  0.6875639413878607  0.8748798417328423
  0.4370905476173174  0.8424312468145168  0.9383988644441195
  0.7476286373397445  0.3731802106569804  0.7488781842310862
  0.3130577526727427  0.5314200857509291  0.8119064056321574
  0.8753644650530986  0.1875089807201111  0.8751728233858735
  0.4387163311470251  0.3458151498771233  0.9379451156293187
  0.3112481581510644  0.0304425966082456  0.8109013882078296
  0.5605796111673212  0.6543757846416448  0.0622586377577818
  0.0021989750430052  0.5006658946496280  0.0011836661661713
  0.8120734659174120  0.7809439955258883  0.3121805827811836
  0.1256862561287559  0.3143773676599455  0.1239925755214070
  0.7485043330223613  0.8748443566972569  0.7486228347106064
  0.6248024668631402  0.5626647314691609  0.6256661099441642
  0.6264361086269108  0.0627518256154910  0.6262698700020477
  0.1867894142334672  0.2179326918846458  0.6873747193681676
 
  0.00000000E+00  0.00000000E+00  0.00000000E+00
  0.00000000E+00  0.00000000E+00  0.00000000E+00
  0.00000000E+00  0.00000000E+00  0.00000000E+00
  0.00000000E+00  0.00000000E+00  0.00000000E+00
  0.00000000E+00  0.00000000E+00  0.00000000E+00
  0.00000000E+00  0.00000000E+00  0.00000000E+00
  0.00000000E+00  0.00000000E+00  0.00000000E+00
  0.00000000E+00  0.00000000E+00  0.00000000E+00
  0.00000000E+00  0.00000000E+00  0.00000000E+00
  0.00000000E+00  0.00000000E+00  0.00000000E+00
  0.00000000E+00  0.00000000E+00  0.00000000E+00
  0.00000000E+00  0.00000000E+00  0.00000000E+00
  0.00000000E+00  0.00000000E+00  0.00000000E+00
  0.00000000E+00  0.00000000E+00  0.00000000E+00
  0.00000000E+00  0.00000000E+00  0.00000000E+00
  0.00000000E+00  0.00000000E+00  0.00000000E+00
  0.00000000E+00  0.00000000E+00  0.00000000E+00
  0.00000000E+00  0.00000000E+00  0.00000000E+00
  0.00000000E+00  0.00000000E+00  0.00000000E+00
  0.00000000E+00  0.00000000E+00  0.00000000E+00
  0.00000000E+00  0.00000000E+00  0.00000000E+00
  0.00000000E+00  0.00000000E+00  0.00000000E+00
  0.00000000E+00  0.00000000E+00  0.00000000E+00
  0.00000000E+00  0.00000000E+00  0.00000000E+00
  0.00000000E+00  0.00000000E+00  0.00000000E+00
  0.00000000E+00  0.00000000E+00  0.00000000E+00
  0.00000000E+00  0.00000000E+00  0.00000000E+00
  0.00000000E+00  0.00000000E+00  0.00000000E+00
  0.00000000E+00  0.00000000E+00  0.00000000E+00
  0.00000000E+00  0.00000000E+00  0.00000000E+00
  0.00000000E+00  0.00000000E+00  0.00000000E+00
  0.00000000E+00  0.00000000E+00  0.00000000E+00
