title
1.
-2.004647500 -2.004647500 -4.009295000
-4.009295000 0.000000000 4.009295000
-4.009295000 18.041827500 -6.013942500
24 8
Cartesian
-6.013942500 2.004647500 0.000000000    Ir
-4.009295000 2.004647500 2.004647500    Ir
-6.013942500 6.013942500 0.000000000    Ir
-4.009295000 2.004647500 -2.004647500    Ir
-4.009295000 4.009295000 0.000000000    Ir
-2.004647500 0.000000000 -2.004647500    Ir
-10.023237500 16.037180000 -6.013942500    Ir
-6.013942500 6.013942500 -4.009295000    Ir
-6.013942500 8.018590000 -2.004647500    Ir
-6.013942500 10.023237500 0.000000000    Ir
-4.009295000 4.009295000 -4.009295000    Ir
-4.009295000 6.013942500 -2.004647500    Ir
-2.004647500 4.009295000 -2.004647500    Ir
-6.013942500 12.027885000 -2.004647500    Ir
-4.009295000 6.013942500 -6.013942500    Ir
-4.009295000 8.018590000 -4.009295000    Ir
-4.009295000 10.023237500 -2.004647500    Ir
-8.018590000 14.032532500 -6.013942500    Ir
-8.018590000 16.037180000 -4.009295000    Ir
-6.013942500 12.027885000 -6.013942500    Ir
-6.013942500 14.032532500 -4.009295000    Ir
-6.013942500 14.032532500 -8.018590000    Ir
-6.013942500 16.037180000 -6.013942500    Ir
-4.009295000 14.032532500 -6.013942500    Ir
-4.009295000 0.000000000 0.000000000    Ru
-8.018590000 16.037180000 -8.018590000    Ru
-6.013942500 4.009295000 -2.004647500    Ru
-2.004647500 2.004647500 0.000000000    Ru
-8.018590000 12.027885000 -4.009295000    Ru
-6.013942500 10.023237500 -4.009295000    Ru
-4.009295000 10.023237500 -6.013942500    Ru
-4.009295000 12.027885000 -4.009295000    Ru
