title
1.
0.002560000 1.901080000 -1.908470000
9.534650000 0.008040000 -1.879890000
0.029360000 -7.631000000 -7.605840000
20
Cartesian
3.684817146 -0.003928453 -3.945512403    Ru
3.839302813 -5.727786327 -9.510783400    Ru
3.831962813 -3.820036327 -7.609323400    Ru
3.824622813 -1.912286327 -5.707863400    Ru
5.725612813 -1.906676327 -3.797883400    Ru
5.718271857 0.001835439 -1.896424802    Ru
5.740235684 -5.722176429 -7.600822600    Ru
5.731603144 -4.014411091 -5.699112900    Ru
7.809259713 -2.044706606 -5.697850713    Ru
7.429165281 0.019239369 -3.796211508    Ru
7.670394861 -5.723232539 -9.500759963    Ru
7.643885398 -3.758848421 -7.599130643    Ru
9.594138750 -1.902858835 -3.787855279    Ru
9.530204886 0.024839345 -1.886409515    Ru
9.571384861 -5.717622539 -7.590779963    Ru
9.544875398 -3.753238421 -5.689150643    Ru
1.970396638 -1.911025649 -3.807916946    Ru
1.906459580 0.034326547 -1.906465524    Ru
1.965740122 -5.690469704 -7.573044924    Ru
1.921178320 -3.781668555 -5.709384513    Ru
