title
1.
-8.198110000 -4.733120000 12.971580000
-0.000040000 9.466330000 12.971580000
-8.198150000 4.733210000 -12.971580000
54 162
Cartesian
-8.198190660 7.888669111 -7.566755000    Ir
-13.663529340 1.577780889 7.566755000    Ir
-8.198190660 7.888669111 -3.242895000    Ir
-5.465419340 6.310900889 -1.080965000    Ir
-10.930880660 3.155519111 1.080965000    Ir
-8.198109340 1.577750889 3.242895000    Ir
-5.465460660 3.155489111 1.080965000    Ir
-2.732689340 1.577720889 3.242895000    Ir
-8.198150660 -1.577660889 14.052545000    Ir
-13.663529340 1.577780889 3.242895000    Ir
-8.198190660 7.888669111 1.080965000    Ir
-5.465419340 6.310900889 3.242895000    Ir
-10.930880660 3.155519111 14.052545000    Ir
-8.198109340 1.577750889 16.214475000    Ir
-13.663610661 7.888699111 14.052545000    Ir
-10.930839340 6.310930889 16.214475000    Ir
-10.930880660 3.155519111 5.404825000    Ir
-8.198109340 1.577750889 7.566755000    Ir
-5.465460660 3.155489111 5.404825000    Ir
-2.732689340 1.577720889 7.566755000    Ir
-13.663610661 7.888699111 5.404825000    Ir
-10.930839340 6.310930889 7.566755000    Ir
-8.198190660 7.888669111 5.404825000    Ir
-5.465419340 6.310900889 7.566755000    Ir
-2.732770661 7.888639111 5.404825000    Ir
-8.198109340 1.577750889 20.538335000    Ir
-10.930880660 3.155519111 -7.566755000    Ir
-8.198149340 11.044080889 7.566755000    Ir
-5.465460660 3.155489111 -7.566755000    Ir
-10.930839340 6.310930889 20.538335000    Ir
-10.930880660 3.155519111 9.728685000    Ir
-8.198109340 1.577750889 11.890615000    Ir
-5.465460660 3.155489111 9.728685000    Ir
-10.930839340 6.310930889 -1.080965000    Ir
-13.663610661 7.888699111 9.728685000    Ir
-10.930839340 6.310930889 11.890615000    Ir
-8.198190660 7.888669111 9.728685000    Ir
-5.465419340 6.310900889 11.890615000    Ir
-2.732770661 7.888639111 9.728685000    Ir
-8.198149340 11.044080889 -1.080965000    Ir
-10.930880660 3.155519111 -3.242895000    Ir
-8.198109340 1.577750889 -1.080965000    Ir
-5.465460660 3.155489111 -3.242895000    Ir
-2.732689340 1.577720889 -1.080965000    Ir
-5.465460660 3.155489111 14.052545000    Ir
-10.930839340 6.310930889 3.242895000    Ir
-8.198190660 7.888669111 14.052545000    Ir
-5.465419340 6.310900889 16.214475000    Ir
-2.732770661 7.888639111 14.052545000    Ir
-8.198149340 11.044080889 3.242895000    Ir
-8.198150660 -1.577660889 5.404825000    Ir
-5.465419340 6.310900889 20.538335000    Ir
-8.198150660 -1.577660889 9.728685000    Ir
-13.663529340 1.577780889 -1.080965000    Ir
-13.663563365 3.162965180 5.404825000    Ru
-12.290831104 0.785252207 5.404825000    Ru
-6.838247513 5.518339946 -7.566755000    Ru
-8.198156635 6.303484820 -5.404825000    Ru
-15.023445160 3.948062723 7.566755000    Ru
-1.372738897 3.947987793 7.566755000    Ru
-13.663563365 3.162965180 9.728685000    Ru
-12.290831104 0.785252207 9.728685000    Ru
-6.838247513 5.518339946 -3.242895000    Ru
-8.198156635 6.303484820 -1.080965000    Ru
-6.825335159 8.681182723 -1.080965000    Ru
-9.570888896 8.681197793 -1.080965000    Ru
-8.198198019 3.162935180 1.080965000    Ru
-6.825411104 0.785222207 1.080965000    Ru
-9.570964840 0.785237277 1.080965000    Ru
-10.930846635 1.570334820 3.242895000    Ru
-9.558052487 3.948080054 3.242895000    Ru
-12.303578896 3.948047793 3.242895000    Ru
-2.732723365 3.162905180 1.080965000    Ru
-1.359991104 0.785192207 1.080965000    Ru
-4.105517513 0.785159946 1.080965000    Ru
-5.465371981 1.570304820 3.242895000    Ru
-4.092605159 3.948002723 3.242895000    Ru
-6.838158896 3.948017793 3.242895000    Ru
-13.640499390 3.186062898 1.057875588    Ru
-12.290831104 0.785252207 1.080965000    Ru
-15.036357513 0.785219946 1.080965000    Ru
-8.198156635 6.303484820 -9.728685000    Ru
-15.023445160 3.948062723 3.242895000    Ru
-1.372738897 3.947987793 3.242895000    Ru
-5.465453365 7.896085180 1.080965000    Ru
-4.092721104 5.518372207 1.080965000    Ru
-6.838247513 5.518339946 1.080965000    Ru
-8.198156635 6.303484820 3.242895000    Ru
-6.825335159 8.681182723 3.242895000    Ru
-9.570888896 8.681197793 3.242895000    Ru
-8.198198019 3.162935180 14.052545000    Ru
-6.825411104 0.785222207 14.052545000    Ru
-9.570937513 0.785189946 14.052545000    Ru
-2.732736635 6.303454820 3.242895000    Ru
-9.558025159 3.948032723 16.214475000    Ru
-4.105468896 8.681167793 3.242895000    Ru
-10.930873365 7.896115180 14.052545000    Ru
-9.558141104 5.518402207 14.052545000    Ru
-12.303667513 5.518369946 14.052545000    Ru
-5.465411981 11.036634820 3.242895000    Ru
-12.290715160 -0.785117277 3.242895000    Ru
-6.838158896 3.948017793 -9.728685000    Ru
-8.198143365 3.162935180 5.404825000    Ru
-6.825411104 0.785222207 5.404825000    Ru
-9.570964840 0.785237277 5.404825000    Ru
-10.930846635 1.570334820 7.566755000    Ru
-9.558025159 3.948032723 7.566755000    Ru
-12.303578896 3.948047793 7.566755000    Ru
-2.732723365 3.162905180 5.404825000    Ru
-9.558141104 5.518402207 -7.566755000    Ru
-4.105544841 0.785207277 5.404825000    Ru
-5.465371981 1.570304820 7.566755000    Ru
-4.092632487 3.948050054 7.566755000    Ru
-6.838158896 3.948017793 7.566755000    Ru
-10.930873365 7.896115180 5.404825000    Ru
-9.558141104 5.518402207 5.404825000    Ru
-12.303694840 5.518417277 5.404825000    Ru
-13.663521981 6.303514820 7.566755000    Ru
-12.290782487 8.681260054 7.566755000    Ru
-6.838158896 3.948017793 20.538335000    Ru
-5.465453365 7.896085180 5.404825000    Ru
-4.092721104 5.518372207 5.404825000    Ru
-6.838247513 5.518339946 5.404825000    Ru
-8.198156635 6.303484820 7.566755000    Ru
-6.825335159 8.681182723 7.566755000    Ru
-9.570888896 8.681197793 7.566755000    Ru
-8.198198019 3.162935180 18.376405000    Ru
-15.023561104 5.518432207 5.404825000    Ru
-1.372854841 5.518357277 5.404825000    Ru
-2.732681981 6.303454820 7.566755000    Ru
-9.558025159 3.948032723 20.538335000    Ru
-4.105468896 8.681167793 7.566755000    Ru
-8.198143365 3.162935180 -7.566755000    Ru
-6.825451104 10.251552207 5.404825000    Ru
-9.571004841 10.251567277 5.404825000    Ru
-10.930886635 11.036664820 7.566755000    Ru
-9.558025159 3.948032723 -5.404825000    Ru
-4.105428896 -0.785162207 7.566755000    Ru
-10.930833365 -1.570214820 5.404825000    Ru
-9.558141104 5.518402207 18.376405000    Ru
-4.105557513 10.251489946 5.404825000    Ru
-5.465411981 11.036634820 7.566755000    Ru
-12.290715160 -0.785117277 7.566755000    Ru
-6.838158896 3.948017793 -5.404825000    Ru
-8.198143365 3.162935180 9.728685000    Ru
-6.825411104 0.785222207 9.728685000    Ru
-9.570964840 0.785237277 9.728685000    Ru
-10.930846635 1.570334820 11.890615000    Ru
-9.558052487 3.948080054 11.890615000    Ru
-12.303578896 3.948047793 11.890615000    Ru
-2.732723365 3.162905180 9.728685000    Ru
-9.558141104 5.518402207 -3.242895000    Ru
-4.105517513 0.785159946 9.728685000    Ru
-5.465371981 1.570304820 11.890615000    Ru
-4.092605159 3.948002723 11.890615000    Ru
-6.838158896 3.948017793 11.890615000    Ru
-10.930928019 7.896115180 9.728685000    Ru
-9.558141104 5.518402207 9.728685000    Ru
-12.303694840 5.518417277 9.728685000    Ru
-13.663521981 6.303514820 11.890615000    Ru
-12.290782487 8.681260054 11.890615000    Ru
-15.036308896 8.681227793 11.890615000    Ru
-5.465453365 7.896085180 9.728685000    Ru
-4.092721104 5.518372207 9.728685000    Ru
-6.838247513 5.518339946 9.728685000    Ru
-8.198156635 6.303484820 11.890615000    Ru
-6.825335159 8.681182723 11.890615000    Ru
-9.570888896 8.681197793 11.890615000    Ru
-8.198143365 3.162935180 22.700265000    Ru
-15.023561104 5.518432207 9.728685000    Ru
-1.372854841 5.518357277 9.728685000    Ru
-2.732681981 6.303454820 11.890615000    Ru
-1.359915159 8.681152723 11.890615000    Ru
-4.105468896 8.681167793 11.890615000    Ru
-8.198198019 3.162935180 -3.242895000    Ru
-6.825451104 10.251552207 9.728685000    Ru
-9.571004841 10.251567277 9.728685000    Ru
-10.930791981 1.570334820 -1.080965000    Ru
-9.558025159 3.948032723 -1.080965000    Ru
-12.303578896 3.948047793 -1.080965000    Ru
-10.930833365 -1.570214820 9.728685000    Ru
-9.558141104 5.518402207 22.700265000    Ru
-4.105557513 10.251489946 9.728685000    Ru
-5.465371981 1.570304820 -1.080965000    Ru
-4.092605159 3.948002723 -1.080965000    Ru
-6.838158896 3.948017793 -1.080965000    Ru
-10.930928019 7.896115180 1.080965000    Ru
-9.558141104 5.518402207 1.080965000    Ru
-12.303667513 5.518369946 1.080965000    Ru
-13.663576635 6.303514820 3.242895000    Ru
-12.290755159 8.681212723 3.242895000    Ru
-6.838158896 3.948017793 16.214475000    Ru
-5.465453365 7.896085180 14.052545000    Ru
-4.092721104 5.518372207 14.052545000    Ru
-6.838247513 5.518339946 14.052545000    Ru
-8.198156635 6.303484820 16.214475000    Ru
-6.825295159 -0.785147277 3.242895000    Ru
-9.570848896 -0.785132207 3.242895000    Ru
-8.198238019 12.629265180 1.080965000    Ru
-6.825451104 10.251552207 1.080965000    Ru
-9.570977513 10.251519946 1.080965000    Ru
-10.930886635 11.036664820 3.242895000    Ru
-9.558025159 3.948032723 -9.728685000    Ru
-4.105428896 -0.785162207 3.242895000    Ru
-5.465413365 -1.570244820 5.404825000    Ru
-12.290871104 10.251582207 5.404825000    Ru
-6.838247513 5.518339946 18.376405000    Ru
-8.198156635 6.303484820 20.538335000    Ru
-6.825295159 -0.785147277 7.566755000    Ru
-9.570848896 -0.785132207 7.566755000    Ru
-5.465413365 -1.570244820 9.728685000    Ru
-12.290871104 10.251582207 9.728685000    Ru
-6.838247513 5.518339946 22.700265000    Ru
-8.198061981 -3.162845180 11.890615000    Ru
-6.825295159 -0.785147277 11.890615000    Ru
-9.570848896 -0.785132207 11.890615000    Ru
