title
1.
5.445980000 -9.432440000 0.000000000
-10.891720000 0.000140000 0.000000000
0.000000000 0.000000000 -12.879930000
96
Cartesian
-2.723018918 -1.571963783 -7.513292500    Ru
0.000148918 -3.144186217 -5.366637500    Ru
-0.000088918 -1.571998783 -7.513292500    Ru
1.361406082 -3.930108783 -7.513292500    Ru
-1.361523918 -3.930073783 -7.513292500    Ru
-2.722781082 -3.144151217 -5.366637500    Ru
-1.361346082 -0.786076217 -5.366637500    Ru
-4.084276082 -0.786041217 -5.366637500    Ru
-8.168878918 -1.571893783 -7.513292500    Ru
-5.445711082 -3.144116217 -5.366637500    Ru
-5.445948918 -1.571928783 -7.513292500    Ru
-4.084453918 -3.930038783 -7.513292500    Ru
-6.807383918 -3.930003783 -7.513292500    Ru
-8.168641082 -3.144081217 -5.366637500    Ru
-6.807206082 -0.786006217 -5.366637500    Ru
-9.530136082 -0.785971217 -5.366637500    Ru
-0.000028918 -6.288183783 -7.513292500    Ru
2.723138918 -7.860406217 -5.366637500    Ru
2.722901082 -6.288218783 -7.513292500    Ru
4.084396082 -8.646328783 -7.513292500    Ru
1.361466082 -8.646293783 -7.513292500    Ru
0.000208918 -7.860371217 -5.366637500    Ru
1.361643918 -5.502296217 -5.366637500    Ru
-1.361286082 -5.502261217 -5.366637500    Ru
-5.445888918 -6.288113783 -7.513292500    Ru
-2.722721082 -7.860336217 -5.366637500    Ru
-2.722958918 -6.288148783 -7.513292500    Ru
-1.361463918 -8.646258783 -7.513292500    Ru
-4.084393918 -8.646223783 -7.513292500    Ru
-5.445651082 -7.860301217 -5.366637500    Ru
-4.084216082 -5.502226217 -5.366637500    Ru
-6.807146082 -5.502191217 -5.366637500    Ru
-2.723018918 -1.571963783 -3.219982500    Ru
0.000148918 -3.144186217 -1.073327500    Ru
-0.000088918 -1.571998783 -3.219982500    Ru
1.361406082 -3.930108783 -3.219982500    Ru
-1.361523918 -3.930073783 -3.219982500    Ru
-2.722781082 -3.144151217 -1.073327500    Ru
-1.361346082 -0.786076217 -1.073327500    Ru
-4.084276082 -0.786041217 -1.073327500    Ru
-8.168878918 -1.571893783 -3.219982500    Ru
-5.445711082 -3.144116217 -1.073327500    Ru
-5.445948918 -1.571928783 -3.219982500    Ru
-4.084453918 -3.930038783 -3.219982500    Ru
-6.807383918 -3.930003783 -3.219982500    Ru
-8.168641082 -3.144081217 -1.073327500    Ru
-6.807206082 -0.786006217 -1.073327500    Ru
-9.530136082 -0.785971217 -1.073327500    Ru
-0.000028918 -6.288183783 -3.219982500    Ru
2.723138918 -7.860406217 -1.073327500    Ru
2.722901082 -6.288218783 -3.219982500    Ru
4.084396082 -8.646328783 -3.219982500    Ru
1.361466082 -8.646293783 -3.219982500    Ru
0.000208918 -7.860371217 -1.073327500    Ru
1.361643918 -5.502296217 -1.073327500    Ru
-1.361286082 -5.502261217 -1.073327500    Ru
-5.445888918 -6.288113783 -3.219982500    Ru
-2.722721082 -7.860336217 -1.073327500    Ru
-2.722958918 -6.288148783 -3.219982500    Ru
-1.361463918 -8.646258783 -3.219982500    Ru
-4.084393918 -8.646223783 -3.219982500    Ru
-5.445651082 -7.860301217 -1.073327500    Ru
-4.084216082 -5.502226217 -1.073327500    Ru
-6.807146082 -5.502191217 -1.073327500    Ru
-2.723018918 -1.571963783 -11.806602500    Ru
0.000148918 -3.144186217 -9.659947500    Ru
-0.000088918 -1.571998783 -11.806602500    Ru
1.361406082 -3.930108783 -11.806602500    Ru
-1.361523918 -3.930073783 -11.806602500    Ru
-2.722781082 -3.144151217 -9.659947500    Ru
-1.361346082 -0.786076217 -9.659947500    Ru
-4.084276082 -0.786041217 -9.659947500    Ru
-8.168878918 -1.571893783 -11.806602500    Ru
-5.445711082 -3.144116217 -9.659947500    Ru
-5.445948918 -1.571928783 -11.806602500    Ru
-4.084453918 -3.930038783 -11.806602500    Ru
-6.807383918 -3.930003783 -11.806602500    Ru
-8.168641082 -3.144081217 -9.659947500    Ru
-6.807206082 -0.786006217 -9.659947500    Ru
-9.530136082 -0.785971217 -9.659947500    Ru
-0.000028918 -6.288183783 -11.806602500    Ru
2.723138918 -7.860406217 -9.659947500    Ru
2.722901082 -6.288218783 -11.806602500    Ru
4.084396082 -8.646328783 -11.806602500    Ru
1.361466082 -8.646293783 -11.806602500    Ru
0.000208918 -7.860371217 -9.659947500    Ru
1.361643918 -5.502296217 -9.659947500    Ru
-1.361286082 -5.502261217 -9.659947500    Ru
-5.470395468 -6.273964913 -11.834895413    Ru
-2.722721082 -7.860336217 -9.659947500    Ru
-2.722958918 -6.288148783 -11.806602500    Ru
-1.361463918 -8.646258783 -11.806602500    Ru
-4.084393918 -8.646223783 -11.806602500    Ru
-5.445651082 -7.860301217 -9.659947500    Ru
-4.084216082 -5.502226217 -9.659947500    Ru
-6.807146082 -5.502191217 -9.659947500    Ru
