title                                   
   1.00000000000000     
   -10.9893400000000003    0.0000800000000000    4.4044999999999996
     5.4947400000000002   -9.5169999999999995    4.4044999999999996
     5.4946000000000002    9.5169200000000007    4.4044999999999996
   Ir   Ru
    72    24
Direct
  0.9166716666484689  0.0002266666547541  0.3331016666967841
  0.8335750000000033  0.1664249999999967  0.2500000000000000
  0.9997700000242631  0.0833299999668498  0.1669000000088801
  0.2499966666424029  0.1664366666998163  0.3335666666577879
  0.1668933333515312  0.0833383333242352  0.4997683333242335
  0.3330916666666681  0.0002416666666676  0.4166666666666643
  0.4166716666484689  0.5002266666547541  0.3331016666967841
  0.3335750000000033  0.6664249999999967  0.2500000000000000
  0.4997700000242631  0.5833299999668498  0.1669000000088801
  0.7499966666424029  0.6664366666998163  0.3335666666577879
  0.6668933333515312  0.5833383333242352  0.4997683333242335
  0.8330916666666681  0.5002416666666676  0.4166666666666643
  0.0833383333151332  0.6668933333214184  0.4997683333634484
  0.0002416666666676  0.8330916666666681  0.4166666666666643
  0.1664366666909345  0.7499966666335212  0.3335666666755515
  0.4166633333090672  0.8331033333664806  0.5002333333244522
  0.3335600000182026  0.7500049999908995  0.6664349999908978
  0.4997583333333324  0.6669083333333319  0.5833333333333357
  0.5833383333151332  0.1668933333214184  0.4997683333634484
  0.5002416666666676  0.3330916666666681  0.4166666666666643
  0.6664399999817974  0.2499950000091005  0.3335650000091022
  0.9166633333090672  0.3331033333664806  0.5002333333244522
  0.8335633333090655  0.2500033333664788  0.6664333333244485
  0.9997583333333324  0.1669083333333319  0.5833333333333357
  0.2500049999817975  0.3335599999880827  0.6664350000301127
  0.1669083333333319  0.4997583333333324  0.5833333333333357
  0.3331033333575988  0.4166633333001855  0.5002333333422158
  0.5833299999757315  0.4997700000331449  0.6668999999911165
  0.5002266666848669  0.4166716666575638  0.8331016666575692
  0.6664249999999967  0.3335750000000033  0.7500000000000000
  0.9166716666484689  0.5002266666547541  0.8331016666967841
  0.8335750000000033  0.6664250000000038  0.7500000000000000
  0.9997700000242631  0.5833299999668498  0.6669000000088801
  0.2499966666424029  0.6664366666998163  0.8335666666577879
  0.1668966666424012  0.5833366666998145  0.9997666666577842
  0.3330916666666681  0.5002416666666676  0.9166666666666643
  0.4166716666484689  0.0002266666547541  0.8331016666967841
  0.3335750000000033  0.1664249999999967  0.7500000000000000
  0.4997733333151331  0.0833283333424362  0.6668983333424308
  0.7499966666424029  0.1664366666998163  0.8335666666577879
  0.6668966666424012  0.0833366666998145  0.9997666666577842
  0.8330916666666681  0.0002416666666676  0.9166666666666643
  0.0833383333151332  0.1668933333214184  0.9997683333634484
  0.0002416666666676  0.3330916666666681  0.9166666666666643
  0.1664399999817974  0.2499950000091005  0.8335650000091022
  0.4166633333090672  0.3331033333664806  0.0002333333244522
  0.3335600000182026  0.2500049999908995  0.1664349999908978
  0.4997583333333324  0.1669083333333319  0.0833333333333357
  0.7500049999817975  0.8335599999880827  0.6664350000301127
  0.6669083333333319  0.9997583333333324  0.5833333333333357
  0.8331066666484688  0.9166616666757648  0.5002316666757665
  0.0833299999757315  0.9997700000331449  0.6668999999911165
  0.0002266666848669  0.9166716666575638  0.8331016666575692
  0.1664249999999967  0.8335750000000033  0.7500000000000000
  0.5833383333151332  0.6668933333214184  0.9997683333634484
  0.5002416666666676  0.8330916666666681  0.9166666666666643
  0.6664399999817974  0.7499950000091005  0.8335650000091022
  0.9166633333090672  0.8331033333664806  0.0002333333244522
  0.8335600000182026  0.7500049999908995  0.1664349999908978
  0.9997583333333324  0.6669083333333319  0.0833333333333357
  0.2500049999817975  0.8335599999880827  0.1664350000301127
  0.1669083333333319  0.9997583333333324  0.0833333333333357
  0.3331033333575988  0.9166633333001855  0.0002333333422158
  0.5833299999757315  0.9997700000331449  0.1668999999911165
  0.5002266666848669  0.9166716666575638  0.3331016666575692
  0.6664249999999967  0.8335750000000033  0.2500000000000000
  0.7500049999817975  0.3335599999880827  0.1664350000301127
  0.6669083333333319  0.4997583333333324  0.0833333333333357
  0.8331033333575988  0.4166633333001855  0.0002333333422158
  0.0833299999757315  0.4997700000331449  0.1668999999911165
  0.0002266666848669  0.4166716666575638  0.3331016666575692
  0.1664249999999967  0.3335750000000033  0.2500000000000000
  0.0839949999757366  0.9202850000331466  0.2521399999911154
  0.0833266666788006  0.2500066666500942  0.4166666666711052
  0.5833399999878637  0.4166600000165772  0.2499999999955591
  0.5833266666788006  0.7500066666500942  0.4166666666711052
  0.2500066666545351  0.5833266666832415  0.4166666666622234
  0.2499933333454649  0.9166733333167585  0.5833333333377766
  0.7500066666545351  0.0833266666832415  0.4166666666622234
  0.7499933333454649  0.4166733333167585  0.5833333333377766
  0.4166733333211994  0.2499933333499058  0.5833333333288948
  0.4166600000121292  0.5833399999834228  0.7500000000044409
  0.0833399999878637  0.4166600000165772  0.7499999999955591
  0.0833266666788006  0.7500066666500942  0.9166666666711052
  0.5833399999878637  0.9166600000165772  0.7499999999955591
  0.5833266666788006  0.2500066666500942  0.9166666666711052
  0.2500066666545351  0.0833266666832415  0.9166666666622234
  0.2499933333454649  0.4166733333167585  0.0833333333377766
  0.9166733333211994  0.7499933333499058  0.5833333333288948
  0.9166600000121292  0.0833399999834228  0.7500000000044409
  0.7500066666545351  0.5833266666832415  0.9166666666622234
  0.7499933333454649  0.9166733333167585  0.0833333333377766
  0.4166733333211994  0.7499933333499058  0.0833333333288948
  0.4166600000121363  0.0833399999834228  0.2500000000044409
  0.9166733333211994  0.2499933333499058  0.0833333333288948
  0.9166600000121292  0.5833399999834228  0.2500000000044409
 
  0.00000000E+00  0.00000000E+00  0.00000000E+00
  0.00000000E+00  0.00000000E+00  0.00000000E+00
  0.00000000E+00  0.00000000E+00  0.00000000E+00
  0.00000000E+00  0.00000000E+00  0.00000000E+00
  0.00000000E+00  0.00000000E+00  0.00000000E+00
  0.00000000E+00  0.00000000E+00  0.00000000E+00
  0.00000000E+00  0.00000000E+00  0.00000000E+00
  0.00000000E+00  0.00000000E+00  0.00000000E+00
  0.00000000E+00  0.00000000E+00  0.00000000E+00
  0.00000000E+00  0.00000000E+00  0.00000000E+00
  0.00000000E+00  0.00000000E+00  0.00000000E+00
  0.00000000E+00  0.00000000E+00  0.00000000E+00
  0.00000000E+00  0.00000000E+00  0.00000000E+00
  0.00000000E+00  0.00000000E+00  0.00000000E+00
  0.00000000E+00  0.00000000E+00  0.00000000E+00
  0.00000000E+00  0.00000000E+00  0.00000000E+00
  0.00000000E+00  0.00000000E+00  0.00000000E+00
  0.00000000E+00  0.00000000E+00  0.00000000E+00
  0.00000000E+00  0.00000000E+00  0.00000000E+00
  0.00000000E+00  0.00000000E+00  0.00000000E+00
  0.00000000E+00  0.00000000E+00  0.00000000E+00
  0.00000000E+00  0.00000000E+00  0.00000000E+00
  0.00000000E+00  0.00000000E+00  0.00000000E+00
  0.00000000E+00  0.00000000E+00  0.00000000E+00
  0.00000000E+00  0.00000000E+00  0.00000000E+00
  0.00000000E+00  0.00000000E+00  0.00000000E+00
  0.00000000E+00  0.00000000E+00  0.00000000E+00
  0.00000000E+00  0.00000000E+00  0.00000000E+00
  0.00000000E+00  0.00000000E+00  0.00000000E+00
  0.00000000E+00  0.00000000E+00  0.00000000E+00
  0.00000000E+00  0.00000000E+00  0.00000000E+00
  0.00000000E+00  0.00000000E+00  0.00000000E+00
  0.00000000E+00  0.00000000E+00  0.00000000E+00
  0.00000000E+00  0.00000000E+00  0.00000000E+00
  0.00000000E+00  0.00000000E+00  0.00000000E+00
  0.00000000E+00  0.00000000E+00  0.00000000E+00
  0.00000000E+00  0.00000000E+00  0.00000000E+00
  0.00000000E+00  0.00000000E+00  0.00000000E+00
  0.00000000E+00  0.00000000E+00  0.00000000E+00
  0.00000000E+00  0.00000000E+00  0.00000000E+00
  0.00000000E+00  0.00000000E+00  0.00000000E+00
  0.00000000E+00  0.00000000E+00  0.00000000E+00
  0.00000000E+00  0.00000000E+00  0.00000000E+00
  0.00000000E+00  0.00000000E+00  0.00000000E+00
  0.00000000E+00  0.00000000E+00  0.00000000E+00
  0.00000000E+00  0.00000000E+00  0.00000000E+00
  0.00000000E+00  0.00000000E+00  0.00000000E+00
  0.00000000E+00  0.00000000E+00  0.00000000E+00
  0.00000000E+00  0.00000000E+00  0.00000000E+00
  0.00000000E+00  0.00000000E+00  0.00000000E+00
  0.00000000E+00  0.00000000E+00  0.00000000E+00
  0.00000000E+00  0.00000000E+00  0.00000000E+00
  0.00000000E+00  0.00000000E+00  0.00000000E+00
  0.00000000E+00  0.00000000E+00  0.00000000E+00
  0.00000000E+00  0.00000000E+00  0.00000000E+00
  0.00000000E+00  0.00000000E+00  0.00000000E+00
  0.00000000E+00  0.00000000E+00  0.00000000E+00
  0.00000000E+00  0.00000000E+00  0.00000000E+00
  0.00000000E+00  0.00000000E+00  0.00000000E+00
  0.00000000E+00  0.00000000E+00  0.00000000E+00
  0.00000000E+00  0.00000000E+00  0.00000000E+00
  0.00000000E+00  0.00000000E+00  0.00000000E+00
  0.00000000E+00  0.00000000E+00  0.00000000E+00
  0.00000000E+00  0.00000000E+00  0.00000000E+00
  0.00000000E+00  0.00000000E+00  0.00000000E+00
  0.00000000E+00  0.00000000E+00  0.00000000E+00
  0.00000000E+00  0.00000000E+00  0.00000000E+00
  0.00000000E+00  0.00000000E+00  0.00000000E+00
  0.00000000E+00  0.00000000E+00  0.00000000E+00
  0.00000000E+00  0.00000000E+00  0.00000000E+00
  0.00000000E+00  0.00000000E+00  0.00000000E+00
  0.00000000E+00  0.00000000E+00  0.00000000E+00
  0.00000000E+00  0.00000000E+00  0.00000000E+00
  0.00000000E+00  0.00000000E+00  0.00000000E+00
  0.00000000E+00  0.00000000E+00  0.00000000E+00
  0.00000000E+00  0.00000000E+00  0.00000000E+00
  0.00000000E+00  0.00000000E+00  0.00000000E+00
  0.00000000E+00  0.00000000E+00  0.00000000E+00
  0.00000000E+00  0.00000000E+00  0.00000000E+00
  0.00000000E+00  0.00000000E+00  0.00000000E+00
  0.00000000E+00  0.00000000E+00  0.00000000E+00
  0.00000000E+00  0.00000000E+00  0.00000000E+00
  0.00000000E+00  0.00000000E+00  0.00000000E+00
  0.00000000E+00  0.00000000E+00  0.00000000E+00
  0.00000000E+00  0.00000000E+00  0.00000000E+00
  0.00000000E+00  0.00000000E+00  0.00000000E+00
  0.00000000E+00  0.00000000E+00  0.00000000E+00
  0.00000000E+00  0.00000000E+00  0.00000000E+00
  0.00000000E+00  0.00000000E+00  0.00000000E+00
  0.00000000E+00  0.00000000E+00  0.00000000E+00
  0.00000000E+00  0.00000000E+00  0.00000000E+00
  0.00000000E+00  0.00000000E+00  0.00000000E+00
  0.00000000E+00  0.00000000E+00  0.00000000E+00
  0.00000000E+00  0.00000000E+00  0.00000000E+00
  0.00000000E+00  0.00000000E+00  0.00000000E+00
  0.00000000E+00  0.00000000E+00  0.00000000E+00
