SYSTEM = Ir_Ru
ISTART = 0
ICHARG = 2
PREC = Accurate
ALGO = Very_Fast
ISMEAR = 1
SIGMA = 0.1
NELMIN = 5
EDIFFG = 1E-05
LREAL = AUTO
ICHARG = 1
IBRION = -1
ISIF = 2
ISTART=0
