title                                   
   1.00000000000000     
     2.7187441741213170   -0.0000000000000000   -0.0000000000000000
    -1.3593720870606585    2.3545007152538591    0.0000000000000000
     0.0000000000000000    0.0000000000000000    4.2972164205587076
   Ru
     2
Direct
 -0.0000000000000000 -0.0000000000000000  0.0000000000000000
  0.6666670000170285  0.3333330000355303  0.5000000000000000
 
  0.00000000E+00  0.00000000E+00  0.00000000E+00
  0.00000000E+00  0.00000000E+00  0.00000000E+00
