title
1.
2.730004000 0.000000000 0.000000000
-1.365002000 2.364252000 0.000000000
0.000000000 0.000000000 4.458069000
2
Cartesian
0.000000000 0.000000000 0.000000000    Ru
1.365003365 0.788083212 2.229034500    Ru
