title
1.
7.747200000 0.000000000 7.747200000
7.747200000 7.747200000 0.000000000
0.000000000 7.747200000 7.747200000
64
Cartesian
3.913614288 9.684000000 9.684000000    Ir
9.684000000 3.873600000 9.684000000    Ir
9.684000000 9.684000000 3.873600000    Ir
3.873600000 3.873600000 3.873600000    Ir
7.747200000 13.557600000 9.684000000    Ir
13.557600000 7.747200000 9.684000000    Ir
5.810400000 5.810400000 3.873600000    Ir
7.747200000 7.747200000 3.873600000    Ir
7.747200000 9.684000000 13.557600000    Ir
5.810400000 3.873600000 5.810400000    Ir
13.557600000 9.684000000 7.747200000    Ir
7.747200000 3.873600000 7.747200000    Ir
3.873600000 5.810400000 5.810400000    Ir
9.684000000 7.747200000 13.557600000    Ir
9.684000000 13.557600000 7.747200000    Ir
3.873600000 7.747200000 7.747200000    Ir
7.747200000 5.810400000 5.810400000    Ir
5.810400000 7.747200000 5.810400000    Ir
5.810400000 5.810400000 7.747200000    Ir
7.747200000 7.747200000 7.747200000    Ir
11.620800000 13.557600000 13.557600000    Ir
9.684000000 7.747200000 5.810400000    Ir
9.684000000 5.810400000 7.747200000    Ir
11.620800000 7.747200000 7.747200000    Ir
7.747200000 9.684000000 5.810400000    Ir
13.557600000 11.620800000 13.557600000    Ir
5.810400000 9.684000000 7.747200000    Ir
7.747200000 11.620800000 7.747200000    Ir
11.620800000 9.684000000 5.810400000    Ir
9.684000000 11.620800000 5.810400000    Ir
9.684000000 9.684000000 7.747200000    Ir
11.620800000 11.620800000 7.747200000    Ir
7.747200000 5.810400000 9.684000000    Ir
5.810400000 7.747200000 9.684000000    Ir
13.557600000 13.557600000 11.620800000    Ir
7.747200000 7.747200000 11.620800000    Ir
11.620800000 5.810400000 9.684000000    Ir
9.684000000 7.747200000 9.684000000    Ir
9.684000000 5.810400000 11.620800000    Ir
11.620800000 7.747200000 11.620800000    Ir
7.747200000 9.684000000 9.684000000    Ir
5.810400000 11.620800000 9.684000000    Ir
5.810400000 9.684000000 11.620800000    Ir
7.747200000 11.620800000 11.620800000    Ir
11.620800000 9.684000000 9.684000000    Ir
9.684000000 11.620800000 9.684000000    Ir
9.684000000 9.684000000 11.620800000    Ir
11.620800000 11.620800000 11.620800000    Ir
15.494400000 9.684000000 9.684000000    Ir
13.557600000 11.620800000 9.684000000    Ir
13.557600000 9.684000000 11.620800000    Ir
15.494400000 11.620800000 11.620800000    Ir
11.620800000 13.557600000 9.684000000    Ir
9.684000000 15.494400000 9.684000000    Ir
9.684000000 13.557600000 11.620800000    Ir
11.620800000 15.494400000 11.620800000    Ir
11.620800000 9.684000000 13.557600000    Ir
9.684000000 11.620800000 13.557600000    Ir
9.684000000 9.684000000 15.494400000    Ir
11.620800000 11.620800000 15.494400000    Ir
15.494400000 13.557600000 13.557600000    Ir
13.557600000 15.494400000 13.557600000    Ir
13.557600000 13.557600000 15.494400000    Ir
15.494400000 15.494400000 15.494400000    Ir
