title                                   
   1.00000000000000     
     5.4458619453230117   -0.0000715147856593   -0.0000000000000000
    -2.7229933980810399    4.7162195813143066    0.0000000000000000
     0.0000000000000000   -0.0000000000000000    4.2933064055469217
   Ru
     8
Direct
  0.3333167014624827  0.6666832985729696  0.2500000000000000
  0.6666832983569115  0.3333167014270302  0.7500000000000000
  0.8333167014624827  0.6666832985729696  0.2500000000000000
  0.8333167014624827  0.1666832985729698  0.2500000000000000
  0.3333167014624827  0.1666832985729698  0.2500000000000000
  0.1666832983569116  0.3333167014270302  0.7500000000000000
  0.6666832983569115  0.8333167014270304  0.7500000000000000
  0.1666832983569116  0.8333167014270304  0.7500000000000000
 
  0.00000000E+00  0.00000000E+00  0.00000000E+00
  0.00000000E+00  0.00000000E+00  0.00000000E+00
  0.00000000E+00  0.00000000E+00  0.00000000E+00
  0.00000000E+00  0.00000000E+00  0.00000000E+00
  0.00000000E+00  0.00000000E+00  0.00000000E+00
  0.00000000E+00  0.00000000E+00  0.00000000E+00
  0.00000000E+00  0.00000000E+00  0.00000000E+00
  0.00000000E+00  0.00000000E+00  0.00000000E+00
