title
1.
5.536763000 0.000000000 0.000000000
-2.768382000 4.794978000 0.000000000
0.000000000 0.000000000 4.427323000
8
Cartesian
-0.000277172 3.196811833 1.106830750    Ru
2.768658171 1.598166167 3.320492250    Ru
2.768104328 3.196811833 1.106830750    Ru
4.152295328 0.799322833 1.106830750    Ru
1.383913828 0.799322833 1.106830750    Ru
0.000276671 1.598166167 3.320492250    Ru
1.384467171 3.995655167 3.320492250    Ru
-1.383914329 3.995655167 3.320492250    Ru
