title                                   
   1.00000000000000     
    -0.0073444631741442    1.9077463039269555    1.9014567834343505
     1.9009874983096204    0.0056056890423443    1.9099843708225925
     1.9035474706825255    1.9066881806188118    0.0015069130036614
   Ru
     1
Direct
  0.9988469999491798  0.9977370001742827  0.9998949998834021
 
  0.00000000E+00  0.00000000E+00  0.00000000E+00
