title
1.
-0.008214000 1.930532500 1.926142500
1.933255500 0.000986500 1.938735000
1.932701500 1.930231000 -0.000003500
1
Cartesian
-0.004568420 -0.002430811 -0.006608199    Ru
