title                                   
   1.00000000000000     
    -3.8171532890445379   -7.6344679930020867    7.6343752229750388
    -3.8171532890445379    7.6344679930020867   -7.6343752229750388
     0.0000000000000000   -7.6354452821113590   -7.6353524330432743
   Ir   Ru
     4    60
Direct
  0.0000595652483119 -0.0000595652483119  0.4998824475354667
  0.3751299769596029  0.6248700230403971  0.2501545525516921
  0.6249470459590751  0.3750529540409250  0.2501506628728885
  0.8748700146113090  0.1251299853886910  0.2498276921242074
  0.1250767216309799  0.8749232783690203  0.7502279810533750
  0.3750506722723699  0.6249493277276301  0.7498268674492033
  0.2498275004759776  0.7501724995240222  0.4998148723382223
  0.1250639146012249  0.8749360853987750  0.2497895406053100
  0.6249289012403192  0.3750710987596810  0.7498212408103091
  0.4999170866915114  0.5000829133084885  0.5002363519910977
  0.2499786668945932  0.7500213331054066  0.0001548793443382
  0.8749572819407309  0.1250427180592691  0.7502195261572138
  0.7501857245048666  0.2498142754951332  0.5002495562284184
  0.4999145774932005  0.5000854225067995 -0.0002487279952656
  0.0000637326205016 -0.0000637326205016  0.0001599920075160
  0.7500349910940557  0.2499650089059445 -0.0002810674155795
  0.1255077158891488  0.8744922841108511  0.5000789689019091
  0.3751082153682782  0.6248917846317219  0.5007340725086383
  0.2495925009132822  0.7504074990867177  0.2499360028286159
  0.1250474798821649  0.8749525201178352 -0.0000572479752588
  0.6248206784912742  0.3751793215087257  0.5008812566723303
  0.4998501593934560  0.5001498406065440  0.2500396884216734
  0.0004666843330183 -0.0004666843330183  0.2492733614028759
  0.3749043200741745  0.6250956799258256 -0.0007032893012596
  0.2500136372972563  0.7499863627027438  0.7500702844924781
  0.8745841714762791  0.1254158285237212  0.5007227566203561
  0.7500701137596577  0.2499298862403424  0.2499297629237727
  0.6250316003033854  0.3749683996966147 -0.0008492611946558
  0.5000253345988332  0.4999746654011666  0.7499106134855839
  0.0000451752676063 -0.0000451752676063  0.7507006386466113
  0.8750206687624741  0.1249793312375259 -0.0007331655252020
  0.7499089377216666  0.2500910622783334  0.7500766207946189
  0.9373782351929931  0.5625657892179912  0.6252362013443703
  0.1882037076173940  0.3136495123287966  0.6254831676444215
  0.0619733536832084  0.4378714254915907  0.3759189465376802
  0.9387130134903442  0.5630882340957258  0.1243130333617058
  0.4374342107820088  0.0626217648070069  0.6252362013443703
  0.3124928197782298  0.1875595553834811  0.3751296752104319
  0.8124404446165189  0.6875071802217700  0.3751296752104319
  0.1879005909522618  0.3120311298876175  0.1240498210954659
  0.0621348627069156  0.4372604090931773  0.8750797848493166
  0.6863504876712033  0.8117962923826058  0.6254831676444215
  0.5621285745084094  0.9380266463167917  0.3759189465376802
  0.4369117659042741  0.0612869865096558  0.1243130333617058
  0.3125893853819433  0.1873672144079237  0.8747941707323795
  0.8126327855920761  0.6874106146180569  0.8747941707323795
  0.6879688701123825  0.8120994090477379  0.1240498210954659
  0.5627395909068231  0.9378651372930844  0.8750797848493166
  0.8119746626483694  0.6863460292636842  0.6256350243330765
  0.0622981639872938  0.4372730713698526  0.6250917615791899
  0.9385359237070505  0.5630547748439372  0.3755257491362534
  0.8130991912312704  0.6885607643490799  0.1244519994329685
  0.3136539707363156  0.1880253373516306  0.6256350243330765
  0.1884881334740805  0.3130075988158789  0.3755190276040005
  0.6869924011841213  0.8115118665259193  0.3755190276040005
  0.0618090565276572  0.4378619408598993  0.1239000997541267
  0.9375184688700420  0.5625663263860428  0.8749373134470529
  0.5627269286301474  0.9377018360127062  0.6250917615791899
  0.4369452251560630  0.0614640762929497  0.3755257491362534
  0.3114392356509200  0.1869008087687297  0.1244519994329685
  0.1875564952596362  0.3126060564845968  0.8749355082568101
  0.6873939435154033  0.8124435047403639  0.8749355082568101
  0.5621380591401007  0.9381909434723428  0.1239000997541267
  0.4374336736139574  0.0624815311299580  0.8749373134470529
 
  0.00000000E+00  0.00000000E+00  0.00000000E+00
  0.00000000E+00  0.00000000E+00  0.00000000E+00
  0.00000000E+00  0.00000000E+00  0.00000000E+00
  0.00000000E+00  0.00000000E+00  0.00000000E+00
  0.00000000E+00  0.00000000E+00  0.00000000E+00
  0.00000000E+00  0.00000000E+00  0.00000000E+00
  0.00000000E+00  0.00000000E+00  0.00000000E+00
  0.00000000E+00  0.00000000E+00  0.00000000E+00
  0.00000000E+00  0.00000000E+00  0.00000000E+00
  0.00000000E+00  0.00000000E+00  0.00000000E+00
  0.00000000E+00  0.00000000E+00  0.00000000E+00
  0.00000000E+00  0.00000000E+00  0.00000000E+00
  0.00000000E+00  0.00000000E+00  0.00000000E+00
  0.00000000E+00  0.00000000E+00  0.00000000E+00
  0.00000000E+00  0.00000000E+00  0.00000000E+00
  0.00000000E+00  0.00000000E+00  0.00000000E+00
  0.00000000E+00  0.00000000E+00  0.00000000E+00
  0.00000000E+00  0.00000000E+00  0.00000000E+00
  0.00000000E+00  0.00000000E+00  0.00000000E+00
  0.00000000E+00  0.00000000E+00  0.00000000E+00
  0.00000000E+00  0.00000000E+00  0.00000000E+00
  0.00000000E+00  0.00000000E+00  0.00000000E+00
  0.00000000E+00  0.00000000E+00  0.00000000E+00
  0.00000000E+00  0.00000000E+00  0.00000000E+00
  0.00000000E+00  0.00000000E+00  0.00000000E+00
  0.00000000E+00  0.00000000E+00  0.00000000E+00
  0.00000000E+00  0.00000000E+00  0.00000000E+00
  0.00000000E+00  0.00000000E+00  0.00000000E+00
  0.00000000E+00  0.00000000E+00  0.00000000E+00
  0.00000000E+00  0.00000000E+00  0.00000000E+00
  0.00000000E+00  0.00000000E+00  0.00000000E+00
  0.00000000E+00  0.00000000E+00  0.00000000E+00
  0.00000000E+00  0.00000000E+00  0.00000000E+00
  0.00000000E+00  0.00000000E+00  0.00000000E+00
  0.00000000E+00  0.00000000E+00  0.00000000E+00
  0.00000000E+00  0.00000000E+00  0.00000000E+00
  0.00000000E+00  0.00000000E+00  0.00000000E+00
  0.00000000E+00  0.00000000E+00  0.00000000E+00
  0.00000000E+00  0.00000000E+00  0.00000000E+00
  0.00000000E+00  0.00000000E+00  0.00000000E+00
  0.00000000E+00  0.00000000E+00  0.00000000E+00
  0.00000000E+00  0.00000000E+00  0.00000000E+00
  0.00000000E+00  0.00000000E+00  0.00000000E+00
  0.00000000E+00  0.00000000E+00  0.00000000E+00
  0.00000000E+00  0.00000000E+00  0.00000000E+00
  0.00000000E+00  0.00000000E+00  0.00000000E+00
  0.00000000E+00  0.00000000E+00  0.00000000E+00
  0.00000000E+00  0.00000000E+00  0.00000000E+00
  0.00000000E+00  0.00000000E+00  0.00000000E+00
  0.00000000E+00  0.00000000E+00  0.00000000E+00
  0.00000000E+00  0.00000000E+00  0.00000000E+00
  0.00000000E+00  0.00000000E+00  0.00000000E+00
  0.00000000E+00  0.00000000E+00  0.00000000E+00
  0.00000000E+00  0.00000000E+00  0.00000000E+00
  0.00000000E+00  0.00000000E+00  0.00000000E+00
  0.00000000E+00  0.00000000E+00  0.00000000E+00
  0.00000000E+00  0.00000000E+00  0.00000000E+00
  0.00000000E+00  0.00000000E+00  0.00000000E+00
  0.00000000E+00  0.00000000E+00  0.00000000E+00
  0.00000000E+00  0.00000000E+00  0.00000000E+00
  0.00000000E+00  0.00000000E+00  0.00000000E+00
  0.00000000E+00  0.00000000E+00  0.00000000E+00
  0.00000000E+00  0.00000000E+00  0.00000000E+00
  0.00000000E+00  0.00000000E+00  0.00000000E+00
