title
1.
-3.935049000 -7.870098000 7.870098000
-3.935049000 7.870098000 -7.870098000
0.000000000 -7.870098000 -7.870098000
4 60
Cartesian
-7.870098000 -3.935049000 -3.935049000    Ir
-3.935049000 0.000000000 -3.935049000    Ir
-3.935049000 -3.935049000 0.000000000    Ir
-3.935049000 -7.870098000 3.935049000    Ir
-3.935049000 0.000000000 -11.805147000    Ru
-3.935049000 -3.935049000 -7.870098000    Ru
-3.935049000 0.000000000 -7.870098000    Ru
-3.935049000 3.935049000 -7.870098000    Ru
-3.935049000 -7.870098000 -3.935049000    Ru
-3.935049000 -3.935049000 -3.935049000    Ru
-3.935049000 -3.935049000 -11.805147000    Ru
-3.935049000 -11.805147000 0.000000000    Ru
-3.935049000 -7.870098000 0.000000000    Ru
-3.935049000 -7.870098000 -7.870098000    Ru
-7.870098000 -7.870098000 -7.870098000    Ru
-3.935049000 -11.805147000 -3.935049000    Ru
-3.935049000 1.967524500 -9.837622500    Ru
-3.935049000 -1.967524500 -5.902573500    Ru
-3.935049000 1.967524500 -5.902573500    Ru
-3.935049000 -1.967524500 -13.772671500    Ru
-3.935049000 -5.902573500 -1.967524500    Ru
-3.935049000 -1.967524500 -1.967524500    Ru
-7.870098000 -1.967524500 -1.967524500    Ru
-3.935049000 -5.902573500 -9.837622500    Ru
-3.935049000 -1.967524500 -9.837622500    Ru
-3.935049000 -9.837622500 1.967524500    Ru
-3.935049000 -5.902573500 1.967524500    Ru
-3.935049000 -9.837622500 -5.902573500    Ru
-3.935049000 -5.902573500 -5.902573500    Ru
-7.870098000 -5.902573500 -5.902573500    Ru
-3.935049000 -13.772671500 -1.967524500    Ru
-3.935049000 -9.837622500 -1.967524500    Ru
-5.902573500 -7.870098000 -1.967524500    Ru
-1.967524500 -3.935049000 -5.902573500    Ru
-1.967524500 0.000000000 -5.902573500    Ru
-5.902573500 -3.935049000 1.967524500    Ru
-1.967524500 -7.870098000 -1.967524500    Ru
-1.967524500 -3.935049000 -1.967524500    Ru
-5.902573500 -3.935049000 -1.967524500    Ru
-1.967524500 0.000000000 -1.967524500    Ru
-1.967524500 -3.935049000 -9.837622500    Ru
-5.902573500 -3.935049000 -5.902573500    Ru
-5.902573500 0.000000000 -5.902573500    Ru
-1.967524500 -3.935049000 1.967524500    Ru
-1.967524500 -7.870098000 -5.902573500    Ru
-5.902573500 -7.870098000 -5.902573500    Ru
-5.902573500 0.000000000 -1.967524500    Ru
-5.902573500 -3.935049000 -9.837622500    Ru
-5.902573500 -5.902573500 -3.935049000    Ru
-1.967524500 -1.967524500 -7.870098000    Ru
-5.902573500 -5.902573500 0.000000000    Ru
-5.902573500 -1.967524500 0.000000000    Ru
-1.967524500 -5.902573500 -3.935049000    Ru
-1.967524500 -1.967524500 -3.935049000    Ru
-5.902573500 -1.967524500 -3.935049000    Ru
-1.967524500 1.967524500 -3.935049000    Ru
-5.902573500 -9.837622500 -3.935049000    Ru
-5.902573500 -1.967524500 -7.870098000    Ru
-1.967524500 -5.902573500 0.000000000    Ru
-1.967524500 -1.967524500 0.000000000    Ru
-1.967524500 -5.902573500 -7.870098000    Ru
-5.902573500 -5.902573500 -7.870098000    Ru
-5.902573500 1.967524500 -3.935049000    Ru
-1.967524500 -9.837622500 -3.935049000    Ru
