title                                   
   1.00000000000000     
     8.2464505261885197   -4.7610903263438908   -4.4316639980285961
     2.7495407023765517    4.7623440892140918   -0.0000000000000000
     8.2464505261885197   -4.7610903263438908    4.4316639980285961
   Ir   Ru
    28     4
Direct
  0.5424146590712196  0.9999999999774808  0.7924146590712196
  0.7910460424580635  0.4999999999870358  0.0410460424580637
  0.2082003442479921  0.5000000000173679  0.9585499100580623
  0.7085499100580623  0.5000000000173679  0.4582003442479921
  0.4160254126490913  0.7492424891341437  0.6660254126490912
  0.6669785774278781  0.2494626536748207  0.9169785774278781
  0.9168835765569378  0.7508435676831231  0.1668835765569379
  0.1669279059407796  0.2491236448496345  0.4169279059407795
  0.5419684163927116  0.4999999999827731  0.7919684163927116
  0.7911250409639228  0.9999999999846321  0.0411250409639227
  0.0420641505579634  0.4999999999797570  0.2920641505579634
  0.2911331535826259  0.9999999999838629  0.5411331535826260
  0.4160254126480913  0.2507575108407092  0.6660254126480909
  0.6669785774270710  0.7505373462871762  0.9169785774270710
  0.9168835765580832  0.2491564322752260  0.1668835765580830
  0.1669279059409632  0.7508763551143901  0.4169279059409632
  0.0837279963615110  0.2495689550108978  0.8316106130228729
  0.3322979876388230  0.7511736255807173  0.0854536585260522
  0.5816106130228729  0.2495689550108978  0.3337279963615108
  0.8354536585260521  0.7511736255807173  0.5822979876388228
  0.0837279963608063  0.7504310450302957  0.8316106130221681
  0.3322979876397582  0.2488263744486438  0.0854536585269874
  0.5816106130221681  0.7504310450302957  0.3337279963608062
  0.8354536585269874  0.2488263744486438  0.5822979876397582
  0.9603388838651727  0.5000000000171927  0.7065982348262074
  0.2077064543149272  0.0000000000172270  0.9591981320704603
  0.4565982348262075  0.5000000000171927  0.2103388838651727
  0.7091981320704603  0.0000000000172270  0.4577064543149272
  0.2919825848638993  0.4999999999802884  0.5419825848638994
  0.0411848072469963  0.9999999999853244  0.2911848072469962
  0.4575533091299012  0.0000000000174690  0.2091244201020002
  0.9591244201020002  0.0000000000174690  0.7075533091299011
 
  0.00000000E+00  0.00000000E+00  0.00000000E+00
  0.00000000E+00  0.00000000E+00  0.00000000E+00
  0.00000000E+00  0.00000000E+00  0.00000000E+00
  0.00000000E+00  0.00000000E+00  0.00000000E+00
  0.00000000E+00  0.00000000E+00  0.00000000E+00
  0.00000000E+00  0.00000000E+00  0.00000000E+00
  0.00000000E+00  0.00000000E+00  0.00000000E+00
  0.00000000E+00  0.00000000E+00  0.00000000E+00
  0.00000000E+00  0.00000000E+00  0.00000000E+00
  0.00000000E+00  0.00000000E+00  0.00000000E+00
  0.00000000E+00  0.00000000E+00  0.00000000E+00
  0.00000000E+00  0.00000000E+00  0.00000000E+00
  0.00000000E+00  0.00000000E+00  0.00000000E+00
  0.00000000E+00  0.00000000E+00  0.00000000E+00
  0.00000000E+00  0.00000000E+00  0.00000000E+00
  0.00000000E+00  0.00000000E+00  0.00000000E+00
  0.00000000E+00  0.00000000E+00  0.00000000E+00
  0.00000000E+00  0.00000000E+00  0.00000000E+00
  0.00000000E+00  0.00000000E+00  0.00000000E+00
  0.00000000E+00  0.00000000E+00  0.00000000E+00
  0.00000000E+00  0.00000000E+00  0.00000000E+00
  0.00000000E+00  0.00000000E+00  0.00000000E+00
  0.00000000E+00  0.00000000E+00  0.00000000E+00
  0.00000000E+00  0.00000000E+00  0.00000000E+00
  0.00000000E+00  0.00000000E+00  0.00000000E+00
  0.00000000E+00  0.00000000E+00  0.00000000E+00
  0.00000000E+00  0.00000000E+00  0.00000000E+00
  0.00000000E+00  0.00000000E+00  0.00000000E+00
  0.00000000E+00  0.00000000E+00  0.00000000E+00
  0.00000000E+00  0.00000000E+00  0.00000000E+00
  0.00000000E+00  0.00000000E+00  0.00000000E+00
  0.00000000E+00  0.00000000E+00  0.00000000E+00
