title                                   
   1.00000000000000     
     8.2464505261885197   -4.7610903263438908   -4.4316639980285961
     2.7495407023765517    4.7623440892140918    0.0000000000000000
     8.2464505261885197   -4.7610903263438908    4.4316639980285961
   Ir   Ru
    28     4
Direct
  0.5424146590712198  0.9999999999774829  0.7924146590712198
  0.7910460424580634  0.4999999999870326  0.0410460424580634
  0.2082003442479916  0.5000000000173657  0.9585499100580606
  0.7085499100580606  0.5000000000173657  0.4582003442479916
  0.4160254126490912  0.7492424891341471  0.6660254126490912
  0.6669785774278765  0.2494626536748186  0.9169785774278765
  0.9168835765569412  0.7508435676831198  0.1668835765569412
  0.1669279059407813  0.2491236448496323  0.4169279059407813
  0.5419684163927130  0.4999999999827764  0.7919684163927130
  0.7911250409639194  0.9999999999846310  0.0411250409639194
  0.0420641505579624  0.4999999999797566  0.2920641505579624
  0.2911331535826278  0.9999999999838636  0.5411331535826278
  0.4160254126480893  0.2507575108407067  0.6660254126480893
  0.6669785774270736  0.7505373462871745  0.9169785774270736
  0.9168835765580852  0.2491564322752282  0.1668835765580852
  0.1669279059409661  0.7508763551143929  0.4169279059409661
  0.0837279963615103  0.2495689550109006  0.8316106130228746
  0.3322979876388246  0.7511736255807193  0.0854536585260490
  0.5816106130228746  0.2495689550109006  0.3337279963615103
  0.8354536585260490  0.7511736255807193  0.5822979876388246
  0.0837279963608069  0.7504310450302967  0.8316106130221712
  0.3322979876397554  0.2488263744486403  0.0854536585269869
  0.5816106130221712  0.7504310450302967  0.3337279963608069
  0.8354536585269869  0.2488263744486403  0.5822979876397554
  0.9603388838651696  0.5000000000171951  0.7065982348262096
  0.2077064543149305  0.0000000000172236  0.9591981320704619
  0.4565982348262096  0.5000000000171951  0.2103388838651696
  0.7091981320704619  0.0000000000172236  0.4577064543149305
  0.2919825848639022  0.4999999999802895  0.5419825848639022
  0.0411848072469994  0.9999999999853273  0.2911848072469994
  0.4575533091298993  0.0000000000174722  0.2091244201020004
  0.9591244201020004  0.0000000000174722  0.7075533091298993
 
  0.00000000E+00  0.00000000E+00  0.00000000E+00
  0.00000000E+00  0.00000000E+00  0.00000000E+00
  0.00000000E+00  0.00000000E+00  0.00000000E+00
  0.00000000E+00  0.00000000E+00  0.00000000E+00
  0.00000000E+00  0.00000000E+00  0.00000000E+00
  0.00000000E+00  0.00000000E+00  0.00000000E+00
  0.00000000E+00  0.00000000E+00  0.00000000E+00
  0.00000000E+00  0.00000000E+00  0.00000000E+00
  0.00000000E+00  0.00000000E+00  0.00000000E+00
  0.00000000E+00  0.00000000E+00  0.00000000E+00
  0.00000000E+00  0.00000000E+00  0.00000000E+00
  0.00000000E+00  0.00000000E+00  0.00000000E+00
  0.00000000E+00  0.00000000E+00  0.00000000E+00
  0.00000000E+00  0.00000000E+00  0.00000000E+00
  0.00000000E+00  0.00000000E+00  0.00000000E+00
  0.00000000E+00  0.00000000E+00  0.00000000E+00
  0.00000000E+00  0.00000000E+00  0.00000000E+00
  0.00000000E+00  0.00000000E+00  0.00000000E+00
  0.00000000E+00  0.00000000E+00  0.00000000E+00
  0.00000000E+00  0.00000000E+00  0.00000000E+00
  0.00000000E+00  0.00000000E+00  0.00000000E+00
  0.00000000E+00  0.00000000E+00  0.00000000E+00
  0.00000000E+00  0.00000000E+00  0.00000000E+00
  0.00000000E+00  0.00000000E+00  0.00000000E+00
  0.00000000E+00  0.00000000E+00  0.00000000E+00
  0.00000000E+00  0.00000000E+00  0.00000000E+00
  0.00000000E+00  0.00000000E+00  0.00000000E+00
  0.00000000E+00  0.00000000E+00  0.00000000E+00
  0.00000000E+00  0.00000000E+00  0.00000000E+00
  0.00000000E+00  0.00000000E+00  0.00000000E+00
  0.00000000E+00  0.00000000E+00  0.00000000E+00
  0.00000000E+00  0.00000000E+00  0.00000000E+00
