title                                   
   1.00000000000000     
     5.2561019593344778    1.6762647626143035   -4.6223206365066103
     4.5251968830240523    8.5310602740520114    4.6900411278562784
     8.9827826804542816   -2.9942608934846624    5.9885217869683549
   Ru
    48
Direct
  0.9955723329733489  0.4481140913545090  0.7564619252288959
  0.6043891121638360  0.5759917882529759  0.7255692468688616
  0.0439699923369623  0.1502063886170296  0.9613523380932854
  0.2020247714719616  0.0035052932915715  0.4190669725958930
  0.1359821723964825  0.9944198851947958  0.1439862289195489
  0.7454085359716445  0.7697651618862937  0.0179354197629228
  0.2809027832085061  0.0944907529383503  0.6068638324340234
  0.9861414637432405  0.1997639445621955  0.4332335529729816
  0.8520818671147697  0.8392603623125763  0.1838680630463195
  0.0021420022322307  0.6141481612071711  0.5729968688611118
  0.4155228414288242  0.8319879001170193  0.3172138049673671
  0.1136249695082809  0.7338915192192744  0.3523501654763385
  0.9945675506787188  0.5868761843518298  0.9103044581444383
  0.2210826987267260  0.7398204714309412  0.8251865579445324
  0.5943840405675295  0.3198275212499780  0.4542477748184174
  0.2951424905846198  0.5128028482139689  0.8046465080681966
  0.6477431053179445  0.4201905210814506  0.9611958400855821
  0.4258593612063711  0.5258921574243548  0.5379431642576142
  0.5078523862108582  0.6487059114873570  0.9505800044283135
  0.2427514431783987  0.5266315488399878  0.1073104245201646
  0.7506614885671582  0.7995690792709883  0.7680932457879428
  0.4085885610548866  0.3345471350563266  0.0682348154190693
  0.3998744536924729  0.1692994336870852  0.9722405561158549
  0.3408362361984596  0.2689980359740423  0.3215868235440739
  0.3635790881806112  0.7170394358095352  0.1559917844415114
  0.8153129860812346  0.4295535053130818  0.5812627863079846
  0.6425770782877231  0.7343222002217220  0.4793322708675850
  0.4838685680940675  0.8539462585131279  0.6449981690671394
  0.9151055229600547  0.9391498389782753  0.4077993139306053
  0.9073244602838629  0.1947535014411331  0.7047107030188149
  0.5950749133718830  0.3067477698386807  0.7820457435547858
  0.6916899617081486  0.0723996458845713  0.5299509868837324
  0.6752360559634156  0.0720701302183574  0.8046816263590506
  0.0680574219730722  0.3240823107038569  0.0120514155468843
  0.3706040467625178  0.9236776395496507  0.8769491238310513
  0.7317835585318643  0.2294630011407231  0.2857865257089570
  0.0236042134276978  0.9335551576651857  0.9350160141190592
  0.4975284760599757  0.9441828646058900  0.0588757237989841
  0.9020549380032824  0.6130310914849589  0.3299374692392357
  0.9432410197141352  0.5143817162334332  0.1742600844992325
  0.5747915606086057  0.5714069511102254  0.3178451107386586
  0.2102746519263952  0.7668059113203917  0.6039911535873717
  0.7451403692513399  0.0929978014348310  0.0742254077575344
  0.1669178016305807  0.1721726973205756  0.2079228352591734
  0.2269367979884321  0.3767970773929061  0.5708834266848892
  0.5598055038621433  0.0339522611279421  0.3570814768891657
  0.2663234640203846  0.2141504898942839  0.7660018179969633
  0.9505651776364471  0.9779343938831833  0.6479418679460712
Lattice velocities
  0.63507506E-03 -0.47190734E-03 -0.12066426E-04
  0.44122356E-04  0.45806592E-02  0.15164959E-02
  0.25716385E-03  0.17340262E-02  0.66738910E-03
 
  0.12139545E-02 -0.55728601E-04 -0.11058788E-03
 -0.46760399E-02 -0.11524792E-02  0.38798492E-03
 -0.52420956E-02 -0.96502843E-03  0.67777918E-02
  0.38465591E-02  0.43218472E-02 -0.71957630E-02
  0.10736717E-02 -0.20628612E-02  0.37199289E-03
  0.13430880E-02 -0.38479733E-02 -0.28166188E-02
 -0.62810086E-02 -0.71720080E-02 -0.27169366E-02
  0.79585731E-04 -0.77432664E-02  0.18451104E-03
  0.79965956E-02  0.34236901E-02  0.74600872E-03
 -0.57590303E-03 -0.74819708E-02 -0.83733568E-02
 -0.54073508E-02 -0.83018302E-02  0.50527728E-02
 -0.27633681E-02  0.64170797E-04 -0.31379081E-02
  0.70484559E-03  0.77492821E-02 -0.30998100E-02
 -0.36085279E-02 -0.20934955E-02 -0.11613783E-02
  0.41366804E-02  0.35820973E-03 -0.10454317E-02
 -0.37839181E-02 -0.18484602E-03 -0.21499594E-02
 -0.39930972E-02 -0.28817822E-04 -0.17924507E-02
 -0.53727836E-02 -0.21188408E-02  0.45060955E-02
 -0.90778824E-03 -0.65921944E-02 -0.12296579E-01
 -0.69895130E-02  0.49254866E-03  0.58484591E-02
 -0.14127897E-02  0.84626996E-02  0.32739180E-02
  0.77911713E-02  0.29667112E-02  0.84432281E-03
 -0.18487870E-02  0.59645809E-02 -0.39669226E-02
 -0.84302301E-02 -0.32636183E-02 -0.59920163E-02
 -0.48575861E-02  0.33960951E-02 -0.41127423E-02
 -0.64656668E-02  0.17025733E-02  0.10224937E-01
 -0.62017530E-02  0.89180791E-02 -0.14018472E-01
  0.16472892E-02 -0.57488361E-02  0.21636420E-02
 -0.14611228E-02 -0.51185344E-03  0.19037876E-02
  0.73567017E-03 -0.25780678E-02  0.73055924E-02
  0.29296701E-02 -0.32997316E-02  0.65279794E-02
 -0.11175946E-01 -0.65272745E-02 -0.14710430E-02
  0.79515399E-03 -0.26028165E-02  0.28504078E-03
  0.25278918E-02 -0.13942191E-02  0.32573635E-02
  0.49738124E-02 -0.40892231E-02  0.69284879E-03
 -0.30783109E-02  0.30439518E-02 -0.17769192E-02
 -0.24364021E-02  0.41474564E-02 -0.55353508E-02
  0.37399108E-02  0.22901231E-02  0.45449193E-02
  0.85582884E-03  0.36464119E-02  0.29727620E-02
  0.99783401E-03  0.97922059E-03 -0.39663062E-02
 -0.23695603E-02  0.45840093E-02  0.66920917E-02
  0.57324114E-03 -0.58942406E-02 -0.70394035E-03
 -0.38637679E-02  0.66612408E-02 -0.34641036E-02
  0.28218573E-02 -0.80067255E-02  0.31410085E-02
  0.69694758E-02 -0.51833879E-03  0.81453629E-03
 -0.37140391E-02  0.42099955E-02 -0.59124475E-03
 -0.68863854E-02 -0.10836416E-01  0.39498231E-02
  0.54924181E-02 -0.10030379E-02  0.11175095E-02
 
           1
   1.50000000000000     
  0.10000000E+01  0.00000000E+00  0.00000000E+00  0.00000000E+00
  0.99557233E+00  0.44811409E+00  0.75646193E+00
  0.60438911E+00  0.57599179E+00  0.72556925E+00
  0.43969992E-01  0.15020639E+00  0.96135234E+00
  0.20202477E+00  0.35052933E-02  0.41906697E+00
  0.13598217E+00  0.99441989E+00  0.14398623E+00
  0.74540854E+00  0.76976516E+00  0.17935420E-01
  0.28090278E+00  0.94490753E-01  0.60686383E+00
  0.98614146E+00  0.19976394E+00  0.43323355E+00
  0.85208187E+00  0.83926036E+00  0.18386806E+00
  0.21420022E-02  0.61414816E+00  0.57299687E+00
  0.41552284E+00  0.83198790E+00  0.31721380E+00
  0.11362497E+00  0.73389152E+00  0.35235017E+00
  0.99456755E+00  0.58687618E+00  0.91030446E+00
  0.22108270E+00  0.73982047E+00  0.82518656E+00
  0.59438404E+00  0.31982752E+00  0.45424777E+00
  0.29514249E+00  0.51280285E+00  0.80464651E+00
  0.64774311E+00  0.42019052E+00  0.96119584E+00
  0.42585936E+00  0.52589216E+00  0.53794316E+00
  0.50785239E+00  0.64870591E+00  0.95058000E+00
  0.24275144E+00  0.52663155E+00  0.10731042E+00
  0.75066149E+00  0.79956908E+00  0.76809325E+00
  0.40858856E+00  0.33454714E+00  0.68234815E-01
  0.39987445E+00  0.16929943E+00  0.97224056E+00
  0.34083624E+00  0.26899804E+00  0.32158682E+00
  0.36357909E+00  0.71703944E+00  0.15599178E+00
  0.81531299E+00  0.42955351E+00  0.58126279E+00
  0.64257708E+00  0.73432220E+00  0.47933227E+00
  0.48386857E+00  0.85394626E+00  0.64499817E+00
  0.91510552E+00  0.93914984E+00  0.40779931E+00
  0.90732446E+00  0.19475350E+00  0.70471070E+00
  0.59507491E+00  0.30674777E+00  0.78204574E+00
  0.69168996E+00  0.72399646E-01  0.52995099E+00
  0.67523606E+00  0.72070130E-01  0.80468163E+00
  0.68057422E-01  0.32408231E+00  0.12051416E-01
  0.37060405E+00  0.92367764E+00  0.87694912E+00
  0.73178356E+00  0.22946300E+00  0.28578653E+00
  0.23604213E-01  0.93355516E+00  0.93501601E+00
  0.49752848E+00  0.94418286E+00  0.58875724E-01
  0.90205494E+00  0.61303109E+00  0.32993747E+00
  0.94324102E+00  0.51438172E+00  0.17426008E+00
  0.57479156E+00  0.57140695E+00  0.31784511E+00
  0.21027465E+00  0.76680591E+00  0.60399115E+00
  0.74514037E+00  0.92997801E-01  0.74225408E-01
  0.16691780E+00  0.17217270E+00  0.20792284E+00
  0.22693680E+00  0.37679708E+00  0.57088343E+00
  0.55980550E+00  0.33952261E-01  0.35708148E+00
  0.26632346E+00  0.21415049E+00  0.76600182E+00
  0.95056518E+00  0.97793439E+00  0.64794187E+00
  0.00000000E+00  0.00000000E+00  0.00000000E+00
  0.00000000E+00  0.00000000E+00  0.00000000E+00
  0.00000000E+00  0.00000000E+00  0.00000000E+00
  0.00000000E+00  0.00000000E+00  0.00000000E+00
  0.00000000E+00  0.00000000E+00  0.00000000E+00
  0.00000000E+00  0.00000000E+00  0.00000000E+00
  0.00000000E+00  0.00000000E+00  0.00000000E+00
  0.00000000E+00  0.00000000E+00  0.00000000E+00
  0.00000000E+00  0.00000000E+00  0.00000000E+00
  0.00000000E+00  0.00000000E+00  0.00000000E+00
  0.00000000E+00  0.00000000E+00  0.00000000E+00
  0.00000000E+00  0.00000000E+00  0.00000000E+00
  0.00000000E+00  0.00000000E+00  0.00000000E+00
  0.00000000E+00  0.00000000E+00  0.00000000E+00
  0.00000000E+00  0.00000000E+00  0.00000000E+00
  0.00000000E+00  0.00000000E+00  0.00000000E+00
  0.00000000E+00  0.00000000E+00  0.00000000E+00
  0.00000000E+00  0.00000000E+00  0.00000000E+00
  0.00000000E+00  0.00000000E+00  0.00000000E+00
  0.00000000E+00  0.00000000E+00  0.00000000E+00
  0.00000000E+00  0.00000000E+00  0.00000000E+00
  0.00000000E+00  0.00000000E+00  0.00000000E+00
  0.00000000E+00  0.00000000E+00  0.00000000E+00
  0.00000000E+00  0.00000000E+00  0.00000000E+00
  0.00000000E+00  0.00000000E+00  0.00000000E+00
  0.00000000E+00  0.00000000E+00  0.00000000E+00
  0.00000000E+00  0.00000000E+00  0.00000000E+00
  0.00000000E+00  0.00000000E+00  0.00000000E+00
  0.00000000E+00  0.00000000E+00  0.00000000E+00
  0.00000000E+00  0.00000000E+00  0.00000000E+00
  0.00000000E+00  0.00000000E+00  0.00000000E+00
  0.00000000E+00  0.00000000E+00  0.00000000E+00
  0.00000000E+00  0.00000000E+00  0.00000000E+00
  0.00000000E+00  0.00000000E+00  0.00000000E+00
  0.00000000E+00  0.00000000E+00  0.00000000E+00
  0.00000000E+00  0.00000000E+00  0.00000000E+00
  0.00000000E+00  0.00000000E+00  0.00000000E+00
  0.00000000E+00  0.00000000E+00  0.00000000E+00
  0.00000000E+00  0.00000000E+00  0.00000000E+00
  0.00000000E+00  0.00000000E+00  0.00000000E+00
  0.00000000E+00  0.00000000E+00  0.00000000E+00
  0.00000000E+00  0.00000000E+00  0.00000000E+00
  0.00000000E+00  0.00000000E+00  0.00000000E+00
  0.00000000E+00  0.00000000E+00  0.00000000E+00
  0.00000000E+00  0.00000000E+00  0.00000000E+00
  0.00000000E+00  0.00000000E+00  0.00000000E+00
  0.00000000E+00  0.00000000E+00  0.00000000E+00
  0.00000000E+00  0.00000000E+00  0.00000000E+00
  0.00000000E+00  0.00000000E+00  0.00000000E+00
  0.00000000E+00  0.00000000E+00  0.00000000E+00
  0.00000000E+00  0.00000000E+00  0.00000000E+00
  0.00000000E+00  0.00000000E+00  0.00000000E+00
  0.00000000E+00  0.00000000E+00  0.00000000E+00
  0.00000000E+00  0.00000000E+00  0.00000000E+00
  0.00000000E+00  0.00000000E+00  0.00000000E+00
  0.00000000E+00  0.00000000E+00  0.00000000E+00
  0.00000000E+00  0.00000000E+00  0.00000000E+00
  0.00000000E+00  0.00000000E+00  0.00000000E+00
  0.00000000E+00  0.00000000E+00  0.00000000E+00
  0.00000000E+00  0.00000000E+00  0.00000000E+00
  0.00000000E+00  0.00000000E+00  0.00000000E+00
  0.00000000E+00  0.00000000E+00  0.00000000E+00
  0.00000000E+00  0.00000000E+00  0.00000000E+00
  0.00000000E+00  0.00000000E+00  0.00000000E+00
  0.00000000E+00  0.00000000E+00  0.00000000E+00
  0.00000000E+00  0.00000000E+00  0.00000000E+00
  0.00000000E+00  0.00000000E+00  0.00000000E+00
  0.00000000E+00  0.00000000E+00  0.00000000E+00
  0.00000000E+00  0.00000000E+00  0.00000000E+00
  0.00000000E+00  0.00000000E+00  0.00000000E+00
  0.00000000E+00  0.00000000E+00  0.00000000E+00
  0.00000000E+00  0.00000000E+00  0.00000000E+00
  0.00000000E+00  0.00000000E+00  0.00000000E+00
  0.00000000E+00  0.00000000E+00  0.00000000E+00
  0.00000000E+00  0.00000000E+00  0.00000000E+00
  0.00000000E+00  0.00000000E+00  0.00000000E+00
  0.00000000E+00  0.00000000E+00  0.00000000E+00
  0.00000000E+00  0.00000000E+00  0.00000000E+00
  0.00000000E+00  0.00000000E+00  0.00000000E+00
  0.00000000E+00  0.00000000E+00  0.00000000E+00
  0.00000000E+00  0.00000000E+00  0.00000000E+00
  0.00000000E+00  0.00000000E+00  0.00000000E+00
  0.00000000E+00  0.00000000E+00  0.00000000E+00
  0.00000000E+00  0.00000000E+00  0.00000000E+00
  0.00000000E+00  0.00000000E+00  0.00000000E+00
  0.00000000E+00  0.00000000E+00  0.00000000E+00
  0.00000000E+00  0.00000000E+00  0.00000000E+00
  0.00000000E+00  0.00000000E+00  0.00000000E+00
  0.00000000E+00  0.00000000E+00  0.00000000E+00
  0.00000000E+00  0.00000000E+00  0.00000000E+00
  0.00000000E+00  0.00000000E+00  0.00000000E+00
  0.00000000E+00  0.00000000E+00  0.00000000E+00
  0.00000000E+00  0.00000000E+00  0.00000000E+00
  0.00000000E+00  0.00000000E+00  0.00000000E+00
  0.00000000E+00  0.00000000E+00  0.00000000E+00
  0.00000000E+00  0.00000000E+00  0.00000000E+00
