title                                   
   1.00000000000000     
     4.9187834231520551    1.5596550301018537   -5.0059137618813061
     3.7178811873533055    8.3631689700385561    4.0789979080926209
     9.3363254046900099   -3.1121084682299429    6.2242169364597393
   Ru
    48
Direct
  0.3395516661835380  0.5903108111913645  0.9366320172100411
  0.3205552846725557  0.1891276181900958  0.9172490826557252
  0.1500328628374309  0.2659885126709605  0.0785870984729950
  0.3324606933932787  0.8918074507031332  0.8075335497102532
  0.5039540386753637  0.6938858633136906  0.2194291803833934
  0.0931594546584706  0.0814678754579297  0.2490346162002262
  0.0866250922059877  0.6261255214255860  0.5344882915615957
  0.0306511054383771  0.9032646825337499  0.4140454066554032
  0.7878787705969716  0.0575239537538719  0.4330411519183836
  0.9942980415964772  0.1687320214895713  0.4954559599935900
  0.0688444860567401  0.3911766148291787  0.4878358014190400
  0.7968374227122895  0.5758079117516223  0.5303587640416617
  0.6253550968544939  0.7282892487422716  0.8447831173752407
  0.9765470790316351  0.7964689345438507  0.8584555359647659
  0.9064755388130246  0.2628918931903385  0.7444988694936970
  0.8293955491942638  0.3173522016817648  0.9439693176220026
  0.0331556828517331  0.5740800637209834  0.1318302764548496
  0.6291587771134771  0.5144901881798958  0.7972154184863226
  0.6496106176143175  0.8853060584799275  0.9869027980115992
  0.4771720613625210  0.0056743602750733  0.1501102079523716
  0.4858832068249008  0.3331365714948996  0.0259707308871990
  0.7171309086935740  0.4726099776991170  0.1198844021335593
  0.2985917829655107  0.4935439420529992  0.1745797079857069
  0.3995332612261053  0.7618885069190253  0.4084349633947708
  0.2913091649904558  0.2516629908711384  0.2838881788565221
  0.5364970228641007  0.4201960401183359  0.3361072902603759
  0.1709027261289926  0.6444804213665967  0.7420444945048605
  0.8536443173237798  0.7649703156557913  0.6669935241758281
  0.4424229081602847  0.1744341765924206  0.4792439966015893
  0.2355853642884435  0.3370259899019777  0.7139071654523748
  0.0226275107008208  0.5115956506630295  0.9278979486697526
  0.2317722885597777  0.8938695870753240  0.5929195565465259
  0.1740616105797530  0.1125260268859851  0.6611390643717461
  0.2308182870481259  0.8997201649302828  0.0840740265801489
  0.0541864894953548  0.0481302955213565  0.8732060972891039
  0.1945904407244903  0.6578334192009022  0.3228900806949702
  0.9246005942658169  0.8286431862885091  0.1736843401489278
  0.7512945493996031  0.1306509031019732  0.1908024055408399
  0.9320695525875763  0.3116856270311483  0.2858544607705389
  0.8228986686461790  0.5961659635381790  0.3210563460992757
  0.7113550697722257  0.8281604547197526  0.3798584851272201
  0.4378230289790619  0.0256102842149741  0.3549566155607955
  0.7191771989533913  0.3197895843837034  0.5425797765413319
  0.4517222955599228  0.4975863239107883  0.5279576123974538
  0.4776726011731851  0.7068850041283086  0.6449385866124898
  0.8294390352067679  0.0029823266398576  0.6962876535251089
  0.5616198098737381  0.1462978907329257  0.7121224887531509
  0.6926115477451871  0.1347065685171319  0.9291980369802774
Lattice velocities
 -0.92197067E-03  0.96659460E-04  0.10317262E-02
 -0.83660741E-03  0.14721576E-04 -0.69325113E-03
  0.14969595E-02  0.21279903E-02  0.21579313E-02
 
 -0.14282344E-02  0.17669903E-02  0.61975978E-02
  0.28447543E-02  0.10256543E-02  0.34748258E-04
 -0.31938223E-02  0.31768351E-02 -0.35362796E-02
 -0.28717176E-02  0.13412777E-02  0.62774715E-02
  0.45113937E-02 -0.63668078E-02 -0.93143513E-03
  0.21138676E-02 -0.40801533E-02 -0.84926253E-02
 -0.52442302E-02  0.44021890E-02 -0.28047438E-02
 -0.11325461E-02 -0.72028034E-02  0.73395156E-02
 -0.71107450E-02 -0.10691909E-02 -0.71620936E-02
 -0.89623186E-03  0.12295805E-01 -0.13488573E-02
 -0.21997902E-02 -0.28074030E-02 -0.23985507E-02
 -0.80410664E-02  0.25902251E-02 -0.19594509E-03
 -0.80647402E-02  0.21274531E-03 -0.26851897E-02
 -0.78558095E-05 -0.79008870E-02  0.35463935E-02
 -0.37311308E-02  0.17637891E-02 -0.13738471E-02
 -0.72068946E-02 -0.85309590E-03 -0.44435969E-03
  0.25121745E-02 -0.46387392E-02 -0.69206680E-02
 -0.41268205E-03  0.98195214E-03 -0.38898757E-02
  0.51150334E-02 -0.75279703E-02 -0.56313858E-02
  0.13711966E-02  0.21366759E-02  0.25903490E-02
 -0.78314479E-02  0.65148752E-03 -0.49576957E-02
  0.71309181E-03  0.28182296E-02  0.42774040E-02
 -0.58741462E-02 -0.95179368E-03 -0.68529385E-02
 -0.12590549E-02 -0.57874314E-02  0.56473641E-03
  0.49136434E-02 -0.54950943E-03 -0.13522677E-01
 -0.21668996E-02  0.39640339E-02  0.14103400E-02
  0.12558444E-02 -0.11740209E-01  0.20582359E-02
  0.44171772E-02 -0.23752261E-03 -0.14678651E-02
 -0.29482622E-02  0.73461806E-02 -0.10679954E-02
  0.71456180E-04  0.88199453E-02 -0.27851730E-02
 -0.31058930E-02 -0.54652853E-02 -0.96682321E-02
  0.14049473E-01 -0.20710218E-02  0.68717495E-02
  0.34550027E-02 -0.30699051E-02  0.47322529E-02
 -0.36063133E-02 -0.39419587E-02  0.70438076E-02
  0.10921044E-02  0.81689168E-02 -0.67510289E-02
 -0.28019985E-02 -0.41838083E-02  0.67003930E-02
 -0.76864345E-02 -0.42903942E-02  0.15977723E-02
  0.14735801E-02 -0.12584096E-01  0.22173706E-02
 -0.10251342E-04 -0.47117361E-02  0.63841693E-02
  0.81094981E-03  0.11114194E-02  0.23803595E-03
 -0.20476727E-02  0.10734311E-02 -0.34140142E-02
  0.32298496E-02  0.58567672E-02  0.36121156E-02
 -0.35935082E-03  0.37451719E-02  0.44069624E-02
 -0.75417908E-02 -0.37383756E-02  0.33345887E-02
 -0.71635684E-02 -0.35949004E-02  0.25162972E-02
 -0.45660028E-02  0.25418794E-02  0.16844512E-02
  0.43315889E-02  0.42639208E-02  0.36713727E-02
  0.35553888E-03 -0.75742927E-02  0.25687123E-02
 
           1
   1.50000000000000     
  0.10000000E+01  0.00000000E+00  0.00000000E+00  0.00000000E+00
  0.33955167E+00  0.59031081E+00  0.93663202E+00
  0.32055528E+00  0.18912762E+00  0.91724908E+00
  0.15003286E+00  0.26598851E+00  0.78587098E-01
  0.33246069E+00  0.89180745E+00  0.80753355E+00
  0.50395404E+00  0.69388586E+00  0.21942918E+00
  0.93159455E-01  0.81467875E-01  0.24903462E+00
  0.86625092E-01  0.62612552E+00  0.53448829E+00
  0.30651105E-01  0.90326468E+00  0.41404541E+00
  0.78787877E+00  0.57523954E-01  0.43304115E+00
  0.99429804E+00  0.16873202E+00  0.49545596E+00
  0.68844486E-01  0.39117661E+00  0.48783580E+00
  0.79683742E+00  0.57580791E+00  0.53035876E+00
  0.62535510E+00  0.72828925E+00  0.84478312E+00
  0.97654708E+00  0.79646893E+00  0.85845554E+00
  0.90647554E+00  0.26289189E+00  0.74449887E+00
  0.82939555E+00  0.31735220E+00  0.94396932E+00
  0.33155683E-01  0.57408006E+00  0.13183028E+00
  0.62915878E+00  0.51449019E+00  0.79721542E+00
  0.64961062E+00  0.88530606E+00  0.98690280E+00
  0.47717206E+00  0.56743603E-02  0.15011021E+00
  0.48588321E+00  0.33313657E+00  0.25970731E-01
  0.71713091E+00  0.47260998E+00  0.11988440E+00
  0.29859178E+00  0.49354394E+00  0.17457971E+00
  0.39953326E+00  0.76188851E+00  0.40843496E+00
  0.29130916E+00  0.25166299E+00  0.28388818E+00
  0.53649702E+00  0.42019604E+00  0.33610729E+00
  0.17090273E+00  0.64448042E+00  0.74204449E+00
  0.85364432E+00  0.76497032E+00  0.66699352E+00
  0.44242291E+00  0.17443418E+00  0.47924400E+00
  0.23558536E+00  0.33702599E+00  0.71390717E+00
  0.22627511E-01  0.51159565E+00  0.92789795E+00
  0.23177229E+00  0.89386959E+00  0.59291956E+00
  0.17406161E+00  0.11252603E+00  0.66113906E+00
  0.23081829E+00  0.89972016E+00  0.84074027E-01
  0.54186489E-01  0.48130296E-01  0.87320610E+00
  0.19459044E+00  0.65783342E+00  0.32289008E+00
  0.92460059E+00  0.82864319E+00  0.17368434E+00
  0.75129455E+00  0.13065090E+00  0.19080241E+00
  0.93206955E+00  0.31168563E+00  0.28585446E+00
  0.82289867E+00  0.59616596E+00  0.32105635E+00
  0.71135507E+00  0.82816045E+00  0.37985849E+00
  0.43782303E+00  0.25610284E-01  0.35495662E+00
  0.71917720E+00  0.31978958E+00  0.54257978E+00
  0.45172230E+00  0.49758632E+00  0.52795761E+00
  0.47767260E+00  0.70688500E+00  0.64493859E+00
  0.82943904E+00  0.29823266E-02  0.69628765E+00
  0.56161981E+00  0.14629789E+00  0.71212249E+00
  0.69261155E+00  0.13470657E+00  0.92919804E+00
  0.00000000E+00  0.00000000E+00  0.00000000E+00
  0.00000000E+00  0.00000000E+00  0.00000000E+00
  0.00000000E+00  0.00000000E+00  0.00000000E+00
  0.00000000E+00  0.00000000E+00  0.00000000E+00
  0.00000000E+00  0.00000000E+00  0.00000000E+00
  0.00000000E+00  0.00000000E+00  0.00000000E+00
  0.00000000E+00  0.00000000E+00  0.00000000E+00
  0.00000000E+00  0.00000000E+00  0.00000000E+00
  0.00000000E+00  0.00000000E+00  0.00000000E+00
  0.00000000E+00  0.00000000E+00  0.00000000E+00
  0.00000000E+00  0.00000000E+00  0.00000000E+00
  0.00000000E+00  0.00000000E+00  0.00000000E+00
  0.00000000E+00  0.00000000E+00  0.00000000E+00
  0.00000000E+00  0.00000000E+00  0.00000000E+00
  0.00000000E+00  0.00000000E+00  0.00000000E+00
  0.00000000E+00  0.00000000E+00  0.00000000E+00
  0.00000000E+00  0.00000000E+00  0.00000000E+00
  0.00000000E+00  0.00000000E+00  0.00000000E+00
  0.00000000E+00  0.00000000E+00  0.00000000E+00
  0.00000000E+00  0.00000000E+00  0.00000000E+00
  0.00000000E+00  0.00000000E+00  0.00000000E+00
  0.00000000E+00  0.00000000E+00  0.00000000E+00
  0.00000000E+00  0.00000000E+00  0.00000000E+00
  0.00000000E+00  0.00000000E+00  0.00000000E+00
  0.00000000E+00  0.00000000E+00  0.00000000E+00
  0.00000000E+00  0.00000000E+00  0.00000000E+00
  0.00000000E+00  0.00000000E+00  0.00000000E+00
  0.00000000E+00  0.00000000E+00  0.00000000E+00
  0.00000000E+00  0.00000000E+00  0.00000000E+00
  0.00000000E+00  0.00000000E+00  0.00000000E+00
  0.00000000E+00  0.00000000E+00  0.00000000E+00
  0.00000000E+00  0.00000000E+00  0.00000000E+00
  0.00000000E+00  0.00000000E+00  0.00000000E+00
  0.00000000E+00  0.00000000E+00  0.00000000E+00
  0.00000000E+00  0.00000000E+00  0.00000000E+00
  0.00000000E+00  0.00000000E+00  0.00000000E+00
  0.00000000E+00  0.00000000E+00  0.00000000E+00
  0.00000000E+00  0.00000000E+00  0.00000000E+00
  0.00000000E+00  0.00000000E+00  0.00000000E+00
  0.00000000E+00  0.00000000E+00  0.00000000E+00
  0.00000000E+00  0.00000000E+00  0.00000000E+00
  0.00000000E+00  0.00000000E+00  0.00000000E+00
  0.00000000E+00  0.00000000E+00  0.00000000E+00
  0.00000000E+00  0.00000000E+00  0.00000000E+00
  0.00000000E+00  0.00000000E+00  0.00000000E+00
  0.00000000E+00  0.00000000E+00  0.00000000E+00
  0.00000000E+00  0.00000000E+00  0.00000000E+00
  0.00000000E+00  0.00000000E+00  0.00000000E+00
  0.00000000E+00  0.00000000E+00  0.00000000E+00
  0.00000000E+00  0.00000000E+00  0.00000000E+00
  0.00000000E+00  0.00000000E+00  0.00000000E+00
  0.00000000E+00  0.00000000E+00  0.00000000E+00
  0.00000000E+00  0.00000000E+00  0.00000000E+00
  0.00000000E+00  0.00000000E+00  0.00000000E+00
  0.00000000E+00  0.00000000E+00  0.00000000E+00
  0.00000000E+00  0.00000000E+00  0.00000000E+00
  0.00000000E+00  0.00000000E+00  0.00000000E+00
  0.00000000E+00  0.00000000E+00  0.00000000E+00
  0.00000000E+00  0.00000000E+00  0.00000000E+00
  0.00000000E+00  0.00000000E+00  0.00000000E+00
  0.00000000E+00  0.00000000E+00  0.00000000E+00
  0.00000000E+00  0.00000000E+00  0.00000000E+00
  0.00000000E+00  0.00000000E+00  0.00000000E+00
  0.00000000E+00  0.00000000E+00  0.00000000E+00
  0.00000000E+00  0.00000000E+00  0.00000000E+00
  0.00000000E+00  0.00000000E+00  0.00000000E+00
  0.00000000E+00  0.00000000E+00  0.00000000E+00
  0.00000000E+00  0.00000000E+00  0.00000000E+00
  0.00000000E+00  0.00000000E+00  0.00000000E+00
  0.00000000E+00  0.00000000E+00  0.00000000E+00
  0.00000000E+00  0.00000000E+00  0.00000000E+00
  0.00000000E+00  0.00000000E+00  0.00000000E+00
  0.00000000E+00  0.00000000E+00  0.00000000E+00
  0.00000000E+00  0.00000000E+00  0.00000000E+00
  0.00000000E+00  0.00000000E+00  0.00000000E+00
  0.00000000E+00  0.00000000E+00  0.00000000E+00
  0.00000000E+00  0.00000000E+00  0.00000000E+00
  0.00000000E+00  0.00000000E+00  0.00000000E+00
  0.00000000E+00  0.00000000E+00  0.00000000E+00
  0.00000000E+00  0.00000000E+00  0.00000000E+00
  0.00000000E+00  0.00000000E+00  0.00000000E+00
  0.00000000E+00  0.00000000E+00  0.00000000E+00
  0.00000000E+00  0.00000000E+00  0.00000000E+00
  0.00000000E+00  0.00000000E+00  0.00000000E+00
  0.00000000E+00  0.00000000E+00  0.00000000E+00
  0.00000000E+00  0.00000000E+00  0.00000000E+00
  0.00000000E+00  0.00000000E+00  0.00000000E+00
  0.00000000E+00  0.00000000E+00  0.00000000E+00
  0.00000000E+00  0.00000000E+00  0.00000000E+00
  0.00000000E+00  0.00000000E+00  0.00000000E+00
  0.00000000E+00  0.00000000E+00  0.00000000E+00
  0.00000000E+00  0.00000000E+00  0.00000000E+00
  0.00000000E+00  0.00000000E+00  0.00000000E+00
  0.00000000E+00  0.00000000E+00  0.00000000E+00
  0.00000000E+00  0.00000000E+00  0.00000000E+00
  0.00000000E+00  0.00000000E+00  0.00000000E+00
