title                                   
   1.00000000000000     
     5.2176481486719757    1.7641885941426161   -4.6453944830016773
     3.9642290130187994    8.3649407309642587    4.2572110756714174
     9.2984556468043422   -3.0994852156011801    6.1989704312016558
   Ru
    48
Direct
  0.1206289117502882  0.4213333491851525  0.8089874601033875
  0.5399050823372561  0.7102324233037742  0.9623187684779702
  0.9368787436468924  0.1049861981976262  0.9246192935013278
  0.4748481637367363  0.0858777813722726  0.5592329361600671
  0.8224002824408930  0.3674038021092046  0.2261772002196859
  0.9813453036537518  0.8938548521161652  0.1631894133860496
  0.2816944898780116  0.3439248969054906  0.4963852733531498
  0.2123196258630033  0.7192256870790422  0.3029647447408963
  0.7205422699682122  0.9477515212448847  0.3488193364032247
  0.9093187274262804  0.9220612262957935  0.5546455515596955
  0.2133757198111136  0.2539704256175853  0.2141920233882046
  0.6926062937696527  0.7012326867776699  0.5224710213484597
  0.8724366630575785  0.6184658973629823  0.8570130958725005
  0.2077251000650584  0.7214952273235056  0.8342832528947860
  0.5094738637824058  0.3974767521331764  0.6358657402010998
  0.5620767391984104  0.1857072214485651  0.9226488660959172
  0.8881835745345266  0.3346023667685902  0.9861278406925796
  0.4329012884348279  0.6114521282651701  0.7353675082390825
  0.6350269595906598  0.6712596333646033  0.2004579923563687
  0.2396299618118854  0.6933241268868982  0.1055747012080654
  0.1671856735851490  0.8697144813450840  0.9459338721940467
  0.5308659351738204  0.4303895471757890  0.0329379230528971
  0.2403003543351024  0.1630707584678779  0.0066507176205682
  0.5282340934509644  0.5073259839249504  0.4172062952005374
  0.5332132520626307  0.8029103239649055  0.3447269750673704
  0.2721630025004705  0.0388984124490867  0.3058310990567500
  0.9418120231461603  0.5488896445594293  0.6059986349310555
  0.6806911893645186  0.8211029317866487  0.6923198941921157
  0.1503201747367014  0.1221004133013228  0.4982953628527177
  0.8636158462565513  0.2624827518181538  0.6820557558325172
  0.6890100165215818  0.4041128826473233  0.8056545818419814
  0.0685009705349946  0.0026514027873974  0.7124436510006138
  0.6848705302449680  0.0890016595994439  0.7310962736145392
  0.1774599122103377  0.4526505914108356  0.0005885867887186
  0.7589243291133051  0.8994504806194498  0.9732203189877838
  0.8775870466548579  0.4167201182838585  0.4530316812497200
  0.3775156293219964  0.8983005887531089  0.1108874296547189
  0.6927754030414393  0.0583235175483489  0.1106984096533423
  0.9603705811627800  0.1414699790901632  0.1825838749690001
  0.8598004892688450  0.5938082113434688  0.0618914093048619
  0.8792901199609320  0.6893232901882210  0.3240499585628200
  0.3217805990413534  0.8813618155287775  0.5712027188746884
  0.4956820867805197  0.2719501284100926  0.3393571708660289
  0.2203920293810451  0.4858078542747288  0.2977386631410780
  0.2370139356395806  0.6166360552732715  0.5410305834242700
  0.7324406221948654  0.2235382228156814  0.4726634758283361
  0.3030060656075411  0.1962165244805457  0.7398494994664567
  0.4341212813231853  0.9430381621600301  0.7999452080850042
Lattice velocities
  0.15189561E-02  0.11639921E-02  0.12007998E-03
 -0.21980328E-03  0.19271421E-02 -0.64870930E-03
  0.16427632E-02  0.16193093E-02  0.18602582E-02
 
  0.21779845E-02  0.45856502E-02  0.48216714E-02
 -0.60480549E-02 -0.34198626E-02 -0.32079464E-02
  0.10614204E-02 -0.42620449E-02 -0.61134131E-02
 -0.67678337E-03 -0.12555175E-02 -0.46033508E-02
 -0.43735062E-02  0.46315015E-02 -0.58205913E-02
 -0.74076440E-02 -0.99970246E-03  0.34965098E-02
 -0.11724643E-01 -0.30216781E-02 -0.48996285E-02
  0.21720589E-03  0.99192570E-03  0.62414140E-02
 -0.48465348E-02  0.83160742E-02  0.13043556E-02
 -0.36864082E-02  0.35104405E-03  0.12547452E-01
  0.38907264E-02 -0.57579159E-02  0.41666991E-02
 -0.11478517E-02  0.36939158E-02  0.14357897E-02
 -0.76811514E-03 -0.51909607E-03  0.12781043E-02
  0.22530707E-02 -0.53897694E-02 -0.71908101E-02
  0.12683809E-02  0.46801672E-02  0.57280571E-02
  0.53981064E-02 -0.19953122E-02 -0.65324290E-02
 -0.44158179E-02 -0.37711769E-02 -0.47631011E-02
 -0.33817502E-02 -0.42511552E-02 -0.10287441E-01
 -0.94128004E-02 -0.55995239E-02  0.18287568E-02
  0.65618046E-02  0.63425074E-02 -0.31423907E-02
  0.41607729E-02  0.11276074E-02  0.34295837E-02
  0.34939488E-02  0.15748342E-02  0.22638646E-02
 -0.48372780E-02 -0.20844387E-02 -0.34153810E-02
 -0.16410163E-02  0.70545193E-04  0.12281102E-03
  0.85347102E-02 -0.16389024E-02  0.18026998E-02
 -0.10606844E-01 -0.36011943E-03  0.13007357E-01
 -0.55885352E-02  0.19703182E-02 -0.39210772E-02
  0.36723556E-02 -0.65007139E-02  0.36774021E-02
  0.14791113E-02 -0.45929385E-02  0.38951088E-02
 -0.74888725E-02 -0.33840376E-02 -0.37480228E-02
  0.57930645E-03  0.19314481E-03  0.51520188E-02
 -0.60193486E-02  0.90830337E-02 -0.53892485E-02
  0.19003107E-02  0.24987338E-02 -0.54751085E-03
 -0.10093719E-01 -0.61873789E-02 -0.29331714E-02
 -0.18148927E-02  0.90446363E-02  0.50604779E-02
 -0.15435069E-02 -0.57549220E-03 -0.72733134E-02
  0.41798458E-02  0.39595611E-03 -0.51031110E-02
  0.54900415E-02 -0.24661739E-02 -0.51708209E-02
 -0.15029903E-02 -0.20915359E-02 -0.66994782E-03
  0.63014837E-02 -0.45102698E-02  0.92619236E-02
  0.37007584E-02 -0.41345452E-02 -0.35671190E-02
  0.20531439E-02 -0.54080631E-02 -0.19553009E-02
 -0.21010067E-02 -0.33789858E-02 -0.67413999E-02
 -0.82814423E-02 -0.44166803E-02 -0.37075554E-03
 -0.60266085E-02  0.27955064E-02 -0.13476652E-02
 -0.27870324E-02 -0.70510478E-02 -0.23547606E-02
  0.83450815E-02  0.53746466E-02  0.34751019E-02
  0.16660232E-02 -0.16777164E-02  0.82834945E-02
 
           1
   1.50000000000000     
  0.10000000E+01  0.00000000E+00  0.00000000E+00  0.00000000E+00
  0.12062891E+00  0.42133335E+00  0.80898746E+00
  0.53990508E+00  0.71023242E+00  0.96231877E+00
  0.93687874E+00  0.10498620E+00  0.92461929E+00
  0.47484816E+00  0.85877781E-01  0.55923294E+00
  0.82240028E+00  0.36740380E+00  0.22617720E+00
  0.98134530E+00  0.89385485E+00  0.16318941E+00
  0.28169449E+00  0.34392490E+00  0.49638527E+00
  0.21231963E+00  0.71922569E+00  0.30296474E+00
  0.72054227E+00  0.94775152E+00  0.34881934E+00
  0.90931873E+00  0.92206123E+00  0.55464555E+00
  0.21337572E+00  0.25397043E+00  0.21419202E+00
  0.69260629E+00  0.70123269E+00  0.52247102E+00
  0.87243666E+00  0.61846590E+00  0.85701310E+00
  0.20772510E+00  0.72149523E+00  0.83428325E+00
  0.50947386E+00  0.39747675E+00  0.63586574E+00
  0.56207674E+00  0.18570722E+00  0.92264887E+00
  0.88818357E+00  0.33460237E+00  0.98612784E+00
  0.43290129E+00  0.61145213E+00  0.73536751E+00
  0.63502696E+00  0.67125963E+00  0.20045799E+00
  0.23962996E+00  0.69332413E+00  0.10557470E+00
  0.16718567E+00  0.86971448E+00  0.94593387E+00
  0.53086594E+00  0.43038955E+00  0.32937923E-01
  0.24030035E+00  0.16307076E+00  0.66507176E-02
  0.52823409E+00  0.50732598E+00  0.41720630E+00
  0.53321325E+00  0.80291032E+00  0.34472698E+00
  0.27216300E+00  0.38898412E-01  0.30583110E+00
  0.94181202E+00  0.54888964E+00  0.60599863E+00
  0.68069119E+00  0.82110293E+00  0.69231989E+00
  0.15032017E+00  0.12210041E+00  0.49829536E+00
  0.86361585E+00  0.26248275E+00  0.68205576E+00
  0.68901002E+00  0.40411288E+00  0.80565458E+00
  0.68500971E-01  0.26514028E-02  0.71244365E+00
  0.68487053E+00  0.89001660E-01  0.73109627E+00
  0.17745991E+00  0.45265059E+00  0.58858679E-03
  0.75892433E+00  0.89945048E+00  0.97322032E+00
  0.87758705E+00  0.41672012E+00  0.45303168E+00
  0.37751563E+00  0.89830059E+00  0.11088743E+00
  0.69277540E+00  0.58323518E-01  0.11069841E+00
  0.96037058E+00  0.14146998E+00  0.18258387E+00
  0.85980049E+00  0.59380821E+00  0.61891409E-01
  0.87929012E+00  0.68932329E+00  0.32404996E+00
  0.32178060E+00  0.88136182E+00  0.57120272E+00
  0.49568209E+00  0.27195013E+00  0.33935717E+00
  0.22039203E+00  0.48580785E+00  0.29773866E+00
  0.23701394E+00  0.61663606E+00  0.54103058E+00
  0.73244062E+00  0.22353822E+00  0.47266348E+00
  0.30300607E+00  0.19621652E+00  0.73984950E+00
  0.43412128E+00  0.94303816E+00  0.79994521E+00
  0.00000000E+00  0.00000000E+00  0.00000000E+00
  0.00000000E+00  0.00000000E+00  0.00000000E+00
  0.00000000E+00  0.00000000E+00  0.00000000E+00
  0.00000000E+00  0.00000000E+00  0.00000000E+00
  0.00000000E+00  0.00000000E+00  0.00000000E+00
  0.00000000E+00  0.00000000E+00  0.00000000E+00
  0.00000000E+00  0.00000000E+00  0.00000000E+00
  0.00000000E+00  0.00000000E+00  0.00000000E+00
  0.00000000E+00  0.00000000E+00  0.00000000E+00
  0.00000000E+00  0.00000000E+00  0.00000000E+00
  0.00000000E+00  0.00000000E+00  0.00000000E+00
  0.00000000E+00  0.00000000E+00  0.00000000E+00
  0.00000000E+00  0.00000000E+00  0.00000000E+00
  0.00000000E+00  0.00000000E+00  0.00000000E+00
  0.00000000E+00  0.00000000E+00  0.00000000E+00
  0.00000000E+00  0.00000000E+00  0.00000000E+00
  0.00000000E+00  0.00000000E+00  0.00000000E+00
  0.00000000E+00  0.00000000E+00  0.00000000E+00
  0.00000000E+00  0.00000000E+00  0.00000000E+00
  0.00000000E+00  0.00000000E+00  0.00000000E+00
  0.00000000E+00  0.00000000E+00  0.00000000E+00
  0.00000000E+00  0.00000000E+00  0.00000000E+00
  0.00000000E+00  0.00000000E+00  0.00000000E+00
  0.00000000E+00  0.00000000E+00  0.00000000E+00
  0.00000000E+00  0.00000000E+00  0.00000000E+00
  0.00000000E+00  0.00000000E+00  0.00000000E+00
  0.00000000E+00  0.00000000E+00  0.00000000E+00
  0.00000000E+00  0.00000000E+00  0.00000000E+00
  0.00000000E+00  0.00000000E+00  0.00000000E+00
  0.00000000E+00  0.00000000E+00  0.00000000E+00
  0.00000000E+00  0.00000000E+00  0.00000000E+00
  0.00000000E+00  0.00000000E+00  0.00000000E+00
  0.00000000E+00  0.00000000E+00  0.00000000E+00
  0.00000000E+00  0.00000000E+00  0.00000000E+00
  0.00000000E+00  0.00000000E+00  0.00000000E+00
  0.00000000E+00  0.00000000E+00  0.00000000E+00
  0.00000000E+00  0.00000000E+00  0.00000000E+00
  0.00000000E+00  0.00000000E+00  0.00000000E+00
  0.00000000E+00  0.00000000E+00  0.00000000E+00
  0.00000000E+00  0.00000000E+00  0.00000000E+00
  0.00000000E+00  0.00000000E+00  0.00000000E+00
  0.00000000E+00  0.00000000E+00  0.00000000E+00
  0.00000000E+00  0.00000000E+00  0.00000000E+00
  0.00000000E+00  0.00000000E+00  0.00000000E+00
  0.00000000E+00  0.00000000E+00  0.00000000E+00
  0.00000000E+00  0.00000000E+00  0.00000000E+00
  0.00000000E+00  0.00000000E+00  0.00000000E+00
  0.00000000E+00  0.00000000E+00  0.00000000E+00
  0.00000000E+00  0.00000000E+00  0.00000000E+00
  0.00000000E+00  0.00000000E+00  0.00000000E+00
  0.00000000E+00  0.00000000E+00  0.00000000E+00
  0.00000000E+00  0.00000000E+00  0.00000000E+00
  0.00000000E+00  0.00000000E+00  0.00000000E+00
  0.00000000E+00  0.00000000E+00  0.00000000E+00
  0.00000000E+00  0.00000000E+00  0.00000000E+00
  0.00000000E+00  0.00000000E+00  0.00000000E+00
  0.00000000E+00  0.00000000E+00  0.00000000E+00
  0.00000000E+00  0.00000000E+00  0.00000000E+00
  0.00000000E+00  0.00000000E+00  0.00000000E+00
  0.00000000E+00  0.00000000E+00  0.00000000E+00
  0.00000000E+00  0.00000000E+00  0.00000000E+00
  0.00000000E+00  0.00000000E+00  0.00000000E+00
  0.00000000E+00  0.00000000E+00  0.00000000E+00
  0.00000000E+00  0.00000000E+00  0.00000000E+00
  0.00000000E+00  0.00000000E+00  0.00000000E+00
  0.00000000E+00  0.00000000E+00  0.00000000E+00
  0.00000000E+00  0.00000000E+00  0.00000000E+00
  0.00000000E+00  0.00000000E+00  0.00000000E+00
  0.00000000E+00  0.00000000E+00  0.00000000E+00
  0.00000000E+00  0.00000000E+00  0.00000000E+00
  0.00000000E+00  0.00000000E+00  0.00000000E+00
  0.00000000E+00  0.00000000E+00  0.00000000E+00
  0.00000000E+00  0.00000000E+00  0.00000000E+00
  0.00000000E+00  0.00000000E+00  0.00000000E+00
  0.00000000E+00  0.00000000E+00  0.00000000E+00
  0.00000000E+00  0.00000000E+00  0.00000000E+00
  0.00000000E+00  0.00000000E+00  0.00000000E+00
  0.00000000E+00  0.00000000E+00  0.00000000E+00
  0.00000000E+00  0.00000000E+00  0.00000000E+00
  0.00000000E+00  0.00000000E+00  0.00000000E+00
  0.00000000E+00  0.00000000E+00  0.00000000E+00
  0.00000000E+00  0.00000000E+00  0.00000000E+00
  0.00000000E+00  0.00000000E+00  0.00000000E+00
  0.00000000E+00  0.00000000E+00  0.00000000E+00
  0.00000000E+00  0.00000000E+00  0.00000000E+00
  0.00000000E+00  0.00000000E+00  0.00000000E+00
  0.00000000E+00  0.00000000E+00  0.00000000E+00
  0.00000000E+00  0.00000000E+00  0.00000000E+00
  0.00000000E+00  0.00000000E+00  0.00000000E+00
  0.00000000E+00  0.00000000E+00  0.00000000E+00
  0.00000000E+00  0.00000000E+00  0.00000000E+00
  0.00000000E+00  0.00000000E+00  0.00000000E+00
  0.00000000E+00  0.00000000E+00  0.00000000E+00
  0.00000000E+00  0.00000000E+00  0.00000000E+00
  0.00000000E+00  0.00000000E+00  0.00000000E+00
  0.00000000E+00  0.00000000E+00  0.00000000E+00
