title
1.
4.009295000 0.000000000 0.000000000
0.000000000 4.009295000 0.000000000
0.000000000 0.000000000 4.009295000
4
Cartesian
0.000000000 2.004647500 2.004647500    Ir
2.004647500 0.000000000 2.004647500    Ir
2.004647500 2.004647500 0.000000000    Ir
0.000000000 0.000000000 0.000000000    Ir
