title                                   
   1.00000000000000     
     5.4459799999999996   -9.4324399999999997    0.0000000000000000
   -10.8917199999999994    0.0001400000000000    0.0000000000000000
     0.0000000000000000    0.0000000000000000  -12.8799299999999999
   Ru
    96
Direct
  0.1666600000212028  0.3333400000106010  0.5833333333333357
  0.3333399999787972  0.1666599999893990  0.4166666666666643
  0.1666600000212028  0.0833400000106010  0.5833333333333357
  0.4166600000212028  0.0833400000106010  0.5833333333333357
  0.4166600000212028  0.3333400000106010  0.5833333333333357
  0.3333399999787972  0.4166599999893990  0.4166666666666643
  0.0833399999787972  0.1666599999893990  0.4166666666666643
  0.0833399999787972  0.4166599999893990  0.4166666666666643
  0.1666600000212028  0.8333400000106010  0.5833333333333357
  0.3333399999787972  0.6666599999893990  0.4166666666666643
  0.1666600000212028  0.5833400000106010  0.5833333333333357
  0.4166600000212028  0.5833400000106010  0.5833333333333357
  0.4166600000212028  0.8333400000106010  0.5833333333333357
  0.3333399999787972  0.9166599999893990  0.4166666666666643
  0.0833399999787972  0.6666599999893990  0.4166666666666643
  0.0833399999787972  0.9166599999893990  0.4166666666666643
  0.6666600000212028  0.3333400000106010  0.5833333333333357
  0.8333399999787972  0.1666599999893990  0.4166666666666643
  0.6666600000212028  0.0833400000106010  0.5833333333333357
  0.9166600000212028  0.0833400000106010  0.5833333333333357
  0.9166600000212028  0.3333400000106010  0.5833333333333357
  0.8333399999787972  0.4166599999893990  0.4166666666666643
  0.5833399999787972  0.1666599999893990  0.4166666666666643
  0.5833399999787972  0.4166599999893990  0.4166666666666643
  0.6666600000212028  0.8333400000106010  0.5833333333333357
  0.8333399999787972  0.6666599999893990  0.4166666666666643
  0.6666600000212028  0.5833400000106010  0.5833333333333357
  0.9166600000212028  0.5833400000106010  0.5833333333333357
  0.9166600000212028  0.8333400000106010  0.5833333333333357
  0.8333399999787972  0.9166599999893990  0.4166666666666643
  0.5833399999787972  0.6666599999893990  0.4166666666666643
  0.5833399999787972  0.9166599999893990  0.4166666666666643
  0.1666600000212028  0.3333400000106010  0.2500000000000000
  0.3333399999787972  0.1666599999893990  0.0833333333333357
  0.1666600000212028  0.0833400000106010  0.2500000000000000
  0.4166600000212028  0.0833400000106010  0.2500000000000000
  0.4166600000212028  0.3333400000106010  0.2500000000000000
  0.3333399999787972  0.4166599999893990  0.0833333333333357
  0.0833399999787972  0.1666599999893990  0.0833333333333357
  0.0833399999787972  0.4166599999893990  0.0833333333333357
  0.1666600000212028  0.8333400000106010  0.2500000000000000
  0.3333399999787972  0.6666599999893990  0.0833333333333357
  0.1666600000212028  0.5833400000106010  0.2500000000000000
  0.4166600000212028  0.5833400000106010  0.2500000000000000
  0.4166600000212028  0.8333400000106010  0.2500000000000000
  0.3333399999787972  0.9166599999893990  0.0833333333333357
  0.0833399999787972  0.6666599999893990  0.0833333333333357
  0.0833399999787972  0.9166599999893990  0.0833333333333357
  0.6666600000212028  0.3333400000106010  0.2500000000000000
  0.8333399999787972  0.1666599999893990  0.0833333333333357
  0.6666600000212028  0.0833400000106010  0.2500000000000000
  0.9166600000212028  0.0833400000106010  0.2500000000000000
  0.9166600000212028  0.3333400000106010  0.2500000000000000
  0.8333399999787972  0.4166599999893990  0.0833333333333357
  0.5833399999787972  0.1666599999893990  0.0833333333333357
  0.5833399999787972  0.4166599999893990  0.0833333333333357
  0.6666600000212028  0.8333400000106010  0.2500000000000000
  0.8333399999787972  0.6666599999893990  0.0833333333333357
  0.6666600000212028  0.5833400000106010  0.2500000000000000
  0.9166600000212028  0.5833400000106010  0.2500000000000000
  0.9166600000212028  0.8333400000106010  0.2500000000000000
  0.8333399999787972  0.9166599999893990  0.0833333333333357
  0.5833399999787972  0.6666599999893990  0.0833333333333357
  0.5833399999787972  0.9166599999893990  0.0833333333333357
  0.1666600000212028  0.3333400000106010  0.9166666666666643
  0.3333399999787972  0.1666599999893990  0.7500000000000000
  0.1666600000212028  0.0833400000106010  0.9166666666666643
  0.4166600000212028  0.0833400000106010  0.9166666666666643
  0.4166600000212028  0.3333400000106010  0.9166666666666643
  0.3333399999787972  0.4166599999893990  0.7500000000000000
  0.0833399999787972  0.1666599999893990  0.7500000000000000
  0.0833399999787972  0.4166599999893990  0.7500000000000000
  0.1666600000212028  0.8333400000106010  0.9166666666666643
  0.3333399999787972  0.6666599999893990  0.7500000000000000
  0.1666600000212028  0.5833400000106010  0.9166666666666643
  0.4166600000212028  0.5833400000106010  0.9166666666666643
  0.4166600000212028  0.8333400000106010  0.9166666666666643
  0.3333399999787972  0.9166599999893990  0.7500000000000000
  0.0833399999787972  0.6666599999893990  0.7500000000000000
  0.0833399999787972  0.9166599999893990  0.7500000000000000
  0.6666600000212028  0.3333400000106010  0.9166666666666643
  0.8333399999787972  0.1666599999893990  0.7500000000000000
  0.6666600000212028  0.0833400000106010  0.9166666666666643
  0.9166600000212028  0.0833400000106010  0.9166666666666643
  0.9166600000212028  0.3333400000106010  0.9166666666666643
  0.8333399999787972  0.4166599999893990  0.7500000000000000
  0.5833399999787972  0.1666599999893990  0.7500000000000000
  0.5833399999787972  0.4166599999893990  0.7500000000000000
  0.6681600000212029  0.8318400000106010  0.9144699999922352
  0.8333399999787972  0.6666599999893990  0.7500000000000000
  0.6666600000212028  0.5833400000106010  0.9166666666666643
  0.9166600000212028  0.5833400000106010  0.9166666666666643
  0.9166600000212028  0.8333400000106010  0.9166666666666643
  0.8333399999787972  0.9166599999893990  0.7500000000000000
  0.5833399999787972  0.6666599999893990  0.7500000000000000
  0.5833399999787972  0.9166599999893990  0.7500000000000000
 
  0.00000000E+00  0.00000000E+00  0.00000000E+00
  0.00000000E+00  0.00000000E+00  0.00000000E+00
  0.00000000E+00  0.00000000E+00  0.00000000E+00
  0.00000000E+00  0.00000000E+00  0.00000000E+00
  0.00000000E+00  0.00000000E+00  0.00000000E+00
  0.00000000E+00  0.00000000E+00  0.00000000E+00
  0.00000000E+00  0.00000000E+00  0.00000000E+00
  0.00000000E+00  0.00000000E+00  0.00000000E+00
  0.00000000E+00  0.00000000E+00  0.00000000E+00
  0.00000000E+00  0.00000000E+00  0.00000000E+00
  0.00000000E+00  0.00000000E+00  0.00000000E+00
  0.00000000E+00  0.00000000E+00  0.00000000E+00
  0.00000000E+00  0.00000000E+00  0.00000000E+00
  0.00000000E+00  0.00000000E+00  0.00000000E+00
  0.00000000E+00  0.00000000E+00  0.00000000E+00
  0.00000000E+00  0.00000000E+00  0.00000000E+00
  0.00000000E+00  0.00000000E+00  0.00000000E+00
  0.00000000E+00  0.00000000E+00  0.00000000E+00
  0.00000000E+00  0.00000000E+00  0.00000000E+00
  0.00000000E+00  0.00000000E+00  0.00000000E+00
  0.00000000E+00  0.00000000E+00  0.00000000E+00
  0.00000000E+00  0.00000000E+00  0.00000000E+00
  0.00000000E+00  0.00000000E+00  0.00000000E+00
  0.00000000E+00  0.00000000E+00  0.00000000E+00
  0.00000000E+00  0.00000000E+00  0.00000000E+00
  0.00000000E+00  0.00000000E+00  0.00000000E+00
  0.00000000E+00  0.00000000E+00  0.00000000E+00
  0.00000000E+00  0.00000000E+00  0.00000000E+00
  0.00000000E+00  0.00000000E+00  0.00000000E+00
  0.00000000E+00  0.00000000E+00  0.00000000E+00
  0.00000000E+00  0.00000000E+00  0.00000000E+00
  0.00000000E+00  0.00000000E+00  0.00000000E+00
  0.00000000E+00  0.00000000E+00  0.00000000E+00
  0.00000000E+00  0.00000000E+00  0.00000000E+00
  0.00000000E+00  0.00000000E+00  0.00000000E+00
  0.00000000E+00  0.00000000E+00  0.00000000E+00
  0.00000000E+00  0.00000000E+00  0.00000000E+00
  0.00000000E+00  0.00000000E+00  0.00000000E+00
  0.00000000E+00  0.00000000E+00  0.00000000E+00
  0.00000000E+00  0.00000000E+00  0.00000000E+00
  0.00000000E+00  0.00000000E+00  0.00000000E+00
  0.00000000E+00  0.00000000E+00  0.00000000E+00
  0.00000000E+00  0.00000000E+00  0.00000000E+00
  0.00000000E+00  0.00000000E+00  0.00000000E+00
  0.00000000E+00  0.00000000E+00  0.00000000E+00
  0.00000000E+00  0.00000000E+00  0.00000000E+00
  0.00000000E+00  0.00000000E+00  0.00000000E+00
  0.00000000E+00  0.00000000E+00  0.00000000E+00
  0.00000000E+00  0.00000000E+00  0.00000000E+00
  0.00000000E+00  0.00000000E+00  0.00000000E+00
  0.00000000E+00  0.00000000E+00  0.00000000E+00
  0.00000000E+00  0.00000000E+00  0.00000000E+00
  0.00000000E+00  0.00000000E+00  0.00000000E+00
  0.00000000E+00  0.00000000E+00  0.00000000E+00
  0.00000000E+00  0.00000000E+00  0.00000000E+00
  0.00000000E+00  0.00000000E+00  0.00000000E+00
  0.00000000E+00  0.00000000E+00  0.00000000E+00
  0.00000000E+00  0.00000000E+00  0.00000000E+00
  0.00000000E+00  0.00000000E+00  0.00000000E+00
  0.00000000E+00  0.00000000E+00  0.00000000E+00
  0.00000000E+00  0.00000000E+00  0.00000000E+00
  0.00000000E+00  0.00000000E+00  0.00000000E+00
  0.00000000E+00  0.00000000E+00  0.00000000E+00
  0.00000000E+00  0.00000000E+00  0.00000000E+00
  0.00000000E+00  0.00000000E+00  0.00000000E+00
  0.00000000E+00  0.00000000E+00  0.00000000E+00
  0.00000000E+00  0.00000000E+00  0.00000000E+00
  0.00000000E+00  0.00000000E+00  0.00000000E+00
  0.00000000E+00  0.00000000E+00  0.00000000E+00
  0.00000000E+00  0.00000000E+00  0.00000000E+00
  0.00000000E+00  0.00000000E+00  0.00000000E+00
  0.00000000E+00  0.00000000E+00  0.00000000E+00
  0.00000000E+00  0.00000000E+00  0.00000000E+00
  0.00000000E+00  0.00000000E+00  0.00000000E+00
  0.00000000E+00  0.00000000E+00  0.00000000E+00
  0.00000000E+00  0.00000000E+00  0.00000000E+00
  0.00000000E+00  0.00000000E+00  0.00000000E+00
  0.00000000E+00  0.00000000E+00  0.00000000E+00
  0.00000000E+00  0.00000000E+00  0.00000000E+00
  0.00000000E+00  0.00000000E+00  0.00000000E+00
  0.00000000E+00  0.00000000E+00  0.00000000E+00
  0.00000000E+00  0.00000000E+00  0.00000000E+00
  0.00000000E+00  0.00000000E+00  0.00000000E+00
  0.00000000E+00  0.00000000E+00  0.00000000E+00
  0.00000000E+00  0.00000000E+00  0.00000000E+00
  0.00000000E+00  0.00000000E+00  0.00000000E+00
  0.00000000E+00  0.00000000E+00  0.00000000E+00
  0.00000000E+00  0.00000000E+00  0.00000000E+00
  0.00000000E+00  0.00000000E+00  0.00000000E+00
  0.00000000E+00  0.00000000E+00  0.00000000E+00
  0.00000000E+00  0.00000000E+00  0.00000000E+00
  0.00000000E+00  0.00000000E+00  0.00000000E+00
  0.00000000E+00  0.00000000E+00  0.00000000E+00
  0.00000000E+00  0.00000000E+00  0.00000000E+00
  0.00000000E+00  0.00000000E+00  0.00000000E+00
  0.00000000E+00  0.00000000E+00  0.00000000E+00
