title
1.
-1.893650000 -1.913360000 -3.811440000
3.821780000 -0.002120000 -3.799900000
1.915330000 -11.420880000 1.931010000
20
Cartesian
2.050039436 -7.688269215 -1.897576660    Ru
3.787476037 -9.478444420 -1.933965177    Ru
2.072796697 -9.484030799 -3.793905944    Ru
1.927314349 -3.760123283 -1.909345529    Ru
3.826837230 -7.622566427 -3.775371226    Ru
3.817501462 -5.714791144 -1.890718489    Ru
1.926710050 -5.721436734 -3.800860227    Ru
1.913509073 -9.522274557 0.015332169    Ru
0.021632835 -9.528903467 -1.895422052    Ru
1.918861166 -1.911487526 -3.808299462    Ru
3.827783144 -11.424101352 0.024667340    Ru
1.920599317 -11.431755069 -1.884525123    Ru
3.814710702 -3.813035849 -3.801432652    Ru
1.935083341 -3.818700637 -5.702841014    Ru
1.993265047 -5.715665065 -0.044619239    Ru
-0.032049141 -5.719899801 -1.889702508    Ru
0.100152845 -1.892312478 -1.707964251    Ru
5.744628512 -11.443515573 -1.855078524    Ru
3.813805189 -11.426824801 -3.766568697    Ru
0.116885173 -3.821828200 -3.810202010    Ru
