title                                   
   1.00000000000000     
     7.5565915621332662    9.3625740869734297    0.5593330061277753
     9.0789175360988228    9.9610641648053591    8.2171733590919338
     9.7533120295898428   -3.2511040098625688    6.5022080197248959
   Ir   Ru
    24    24
Direct
  0.1613298122549795  0.4951072156617516  0.5342825540432374
  0.6827701247250433  0.9217266293372474  0.9277414327037534
  0.2685137413535666  0.9456379653438775  0.6315076191996793
  0.5908952034539723  0.0999619655548186  0.6798719369096841
  0.5948006298306164  0.7164841417391017  0.2361886711348706
  0.1197583929139086  0.9728785579901186  0.5133340058257422
  0.9019289676148259  0.1664654966201247  0.7268954341936039
  0.1784814270373440  0.7614552890850199  0.7498807784238753
  0.9139137156622900  0.3946987503520770  0.5307310866358983
  0.5639169366683949  0.9382757203292887  0.1576462171205091
  0.4989517059334490  0.8839596054031625  0.9555084749969627
  0.1933686727329469  0.1004003982666119  0.1258899098521298
  0.7546693599053903  0.9181463421250793  0.5083068974858174
  0.5996456922284865  0.5149922284241082  0.7268850603148115
  0.9239474166481209  0.9600154580136893  0.8809742259094068
  0.1061655300656430  0.1576061633905669  0.7901013917135953
  0.4517070819899771  0.7040279864905826  0.1569445023449244
  0.3383334011585505  0.7455138979331862  0.9231962467418878
  0.9142931084971149  0.8331224480947468  0.3147076988187376
  0.2428224722315235  0.0977199782965965  0.3566539459449415
  0.4006369079054107  0.5651957912770885  0.3674485476256035
  0.9575794334899319  0.4355524088909123  0.7535560718704153
  0.7374912997323310  0.4171844366954144  0.9580055271796319
  0.1261900960082625  0.7893275109492279  0.5236686431380070
  0.1295962761757340  0.4421674183757920  0.7806973555456251
  0.2868751069431765  0.3193910380812545  0.4062520769794800
  0.9802334050909818  0.4930031812728604  0.1754251635285242
  0.4426157142799166  0.1344045177436199  0.2230256219153840
  0.1180156211455652  0.6064923615751506  0.7915507566034126
  0.5008711620456276  0.3419543571997047  0.6560721114847596
  0.3095079220099755  0.5513246488169574  0.2231699425735918
  0.4456465801163353  0.4458834617393262  0.0527950161022068
  0.5391707876263324  0.2283449792992847  0.2465217781204915
  0.4943844597324580  0.3965744736139973  0.8155513347276653
  0.9988910376783312  0.0012055391355044  0.0662764977040967
  0.0649903780707946  0.4064990266101031  0.9714174981153998
  0.6749640650273623  0.0629532829735302  0.0495502314607998
  0.6617961732229183  0.8092628335078749  0.5708146428969220
  0.3882927443662190  0.7651615077030245  0.4178809703489140
  0.6119557237604084  0.6852859638892718  0.8880005531073983
  0.6863537983993115  0.3795570078913261  0.2373058618685628
  0.9431432647377853  0.0819214104759385  0.2241995999876569
  0.7200916594451682  0.7414286292261598  0.4050412440856808
  0.2974689586004149  0.1856396327127394  0.6761498436169640
  0.9871164848080969  0.6670012991070580  0.1828242924335515
  0.7191944670995232  0.1500357848889354  0.4767254607145346
  0.1307005705065822  0.5473439758196512  0.0162310370768564
  0.8627543333060232  0.3378876789180754  0.4119557403907679
Lattice velocities
  0.17492589E-03  0.57145085E-03  0.15478720E-03
  0.10455451E-02  0.35270499E-02  0.70736386E-03
 -0.29462141E-03 -0.22498270E-02  0.31032950E-02
 
  0.27884404E-02 -0.26179216E-02  0.26481631E-02
 -0.77175429E-02 -0.35292349E-02  0.16297908E-02
  0.30982691E-02 -0.42259043E-02 -0.45146233E-02
 -0.29450681E-02 -0.19961710E-02  0.19188658E-02
  0.23530309E-02  0.14254633E-02  0.25312359E-02
  0.85140093E-02 -0.35116106E-02  0.46348573E-02
 -0.60701734E-02  0.96359682E-02 -0.42570043E-02
  0.33162845E-02  0.22227427E-02  0.65504566E-02
  0.62366216E-02  0.33051833E-02 -0.31865424E-02
  0.21323316E-02  0.58125388E-03  0.57555138E-02
 -0.10670526E-03  0.97165062E-03 -0.10725830E-02
 -0.33894827E-02  0.45814357E-02 -0.61760395E-02
 -0.68325365E-02  0.57216408E-03  0.53367050E-03
 -0.16810235E-02 -0.60882760E-02 -0.52184713E-02
 -0.53765835E-02 -0.67585370E-02 -0.97709527E-03
  0.32814908E-02 -0.43385563E-02 -0.66897590E-03
  0.25541250E-02  0.24701165E-03  0.77634591E-02
 -0.81663434E-03  0.21287322E-02 -0.86161366E-02
  0.10517628E-02  0.50465570E-02 -0.50004641E-02
 -0.53512190E-02  0.52050273E-02  0.54929687E-02
 -0.24508022E-03 -0.20370149E-02 -0.25615278E-02
  0.69318658E-02 -0.68588497E-02  0.31030479E-02
 -0.85967966E-02 -0.65821387E-02 -0.22093357E-02
 -0.47050123E-02  0.18902154E-02  0.31027696E-02
  0.44276561E-02 -0.83285652E-02 -0.75088776E-02
 -0.30806279E-02  0.10187628E-01  0.12648430E-01
  0.24335957E-02  0.38807194E-02  0.70597262E-02
  0.24418168E-02 -0.21548866E-02  0.61768092E-02
 -0.24893508E-02 -0.45517452E-02 -0.14088146E-01
 -0.13121125E-02  0.25385692E-02  0.35255018E-02
  0.18867414E-02  0.31229218E-02 -0.81384764E-02
  0.43020302E-02 -0.42825279E-02 -0.11249701E-01
  0.65922118E-02 -0.78045446E-02 -0.75248211E-02
  0.96600366E-02 -0.55833818E-02 -0.12507840E-01
 -0.48310054E-02 -0.20754459E-02 -0.26103087E-03
 -0.13995332E-01  0.23721245E-02 -0.64315025E-02
 -0.14120031E-01 -0.39568327E-02 -0.60688925E-02
  0.28289935E-02  0.31244931E-02 -0.28156973E-02
  0.43771876E-02  0.35758771E-02  0.48473074E-02
 -0.14913288E-03  0.33504035E-02  0.38310023E-02
 -0.19482318E-02  0.44885033E-02  0.11713684E-01
  0.32525653E-02  0.52524361E-02  0.26011899E-02
 -0.14149395E-02  0.13316361E-02  0.88370654E-03
  0.64422437E-02 -0.37195454E-02 -0.61504002E-02
 -0.10128340E-01 -0.24110873E-02  0.14035959E-02
 -0.28370103E-02 -0.28503627E-02  0.40565792E-03
 -0.34985110E-02  0.64003279E-02 -0.56295534E-02
 -0.44883547E-02 -0.19313594E-01 -0.36068624E-02
 
           1
   3.00000000000000     
  0.10000000E+01  0.00000000E+00  0.00000000E+00  0.00000000E+00
  0.16132981E+00  0.49510722E+00  0.53428255E+00
  0.68277012E+00  0.92172663E+00  0.92774143E+00
  0.26851374E+00  0.94563797E+00  0.63150762E+00
  0.59089520E+00  0.99961966E-01  0.67987194E+00
  0.59480063E+00  0.71648414E+00  0.23618867E+00
  0.11975839E+00  0.97287856E+00  0.51333401E+00
  0.90192897E+00  0.16646550E+00  0.72689543E+00
  0.17848143E+00  0.76145529E+00  0.74988078E+00
  0.91391372E+00  0.39469875E+00  0.53073109E+00
  0.56391694E+00  0.93827572E+00  0.15764622E+00
  0.49895171E+00  0.88395961E+00  0.95550847E+00
  0.19336867E+00  0.10040040E+00  0.12588991E+00
  0.75466936E+00  0.91814634E+00  0.50830690E+00
  0.59964569E+00  0.51499223E+00  0.72688506E+00
  0.92394742E+00  0.96001546E+00  0.88097423E+00
  0.10616553E+00  0.15760616E+00  0.79010139E+00
  0.45170708E+00  0.70402799E+00  0.15694450E+00
  0.33833340E+00  0.74551390E+00  0.92319625E+00
  0.91429311E+00  0.83312245E+00  0.31470770E+00
  0.24282247E+00  0.97719978E-01  0.35665395E+00
  0.40063691E+00  0.56519579E+00  0.36744855E+00
  0.95757943E+00  0.43555241E+00  0.75355607E+00
  0.73749130E+00  0.41718444E+00  0.95800553E+00
  0.12619010E+00  0.78932751E+00  0.52366864E+00
  0.12959628E+00  0.44216742E+00  0.78069736E+00
  0.28687511E+00  0.31939104E+00  0.40625208E+00
  0.98023341E+00  0.49300318E+00  0.17542516E+00
  0.44261571E+00  0.13440452E+00  0.22302562E+00
  0.11801562E+00  0.60649236E+00  0.79155076E+00
  0.50087116E+00  0.34195436E+00  0.65607211E+00
  0.30950792E+00  0.55132465E+00  0.22316994E+00
  0.44564658E+00  0.44588346E+00  0.52795016E-01
  0.53917079E+00  0.22834498E+00  0.24652178E+00
  0.49438446E+00  0.39657447E+00  0.81555133E+00
  0.99889104E+00  0.12055391E-02  0.66276498E-01
  0.64990378E-01  0.40649903E+00  0.97141750E+00
  0.67496407E+00  0.62953283E-01  0.49550231E-01
  0.66179617E+00  0.80926283E+00  0.57081464E+00
  0.38829274E+00  0.76516151E+00  0.41788097E+00
  0.61195572E+00  0.68528596E+00  0.88800055E+00
  0.68635380E+00  0.37955701E+00  0.23730586E+00
  0.94314326E+00  0.81921410E-01  0.22419960E+00
  0.72009166E+00  0.74142863E+00  0.40504124E+00
  0.29746896E+00  0.18563963E+00  0.67614984E+00
  0.98711648E+00  0.66700130E+00  0.18282429E+00
  0.71919447E+00  0.15003578E+00  0.47672546E+00
  0.13070057E+00  0.54734398E+00  0.16231037E-01
  0.86275433E+00  0.33788768E+00  0.41195574E+00
  0.00000000E+00  0.00000000E+00  0.00000000E+00
  0.00000000E+00  0.00000000E+00  0.00000000E+00
  0.00000000E+00  0.00000000E+00  0.00000000E+00
  0.00000000E+00  0.00000000E+00  0.00000000E+00
  0.00000000E+00  0.00000000E+00  0.00000000E+00
  0.00000000E+00  0.00000000E+00  0.00000000E+00
  0.00000000E+00  0.00000000E+00  0.00000000E+00
  0.00000000E+00  0.00000000E+00  0.00000000E+00
  0.00000000E+00  0.00000000E+00  0.00000000E+00
  0.00000000E+00  0.00000000E+00  0.00000000E+00
  0.00000000E+00  0.00000000E+00  0.00000000E+00
  0.00000000E+00  0.00000000E+00  0.00000000E+00
  0.00000000E+00  0.00000000E+00  0.00000000E+00
  0.00000000E+00  0.00000000E+00  0.00000000E+00
  0.00000000E+00  0.00000000E+00  0.00000000E+00
  0.00000000E+00  0.00000000E+00  0.00000000E+00
  0.00000000E+00  0.00000000E+00  0.00000000E+00
  0.00000000E+00  0.00000000E+00  0.00000000E+00
  0.00000000E+00  0.00000000E+00  0.00000000E+00
  0.00000000E+00  0.00000000E+00  0.00000000E+00
  0.00000000E+00  0.00000000E+00  0.00000000E+00
  0.00000000E+00  0.00000000E+00  0.00000000E+00
  0.00000000E+00  0.00000000E+00  0.00000000E+00
  0.00000000E+00  0.00000000E+00  0.00000000E+00
  0.00000000E+00  0.00000000E+00  0.00000000E+00
  0.00000000E+00  0.00000000E+00  0.00000000E+00
  0.00000000E+00  0.00000000E+00  0.00000000E+00
  0.00000000E+00  0.00000000E+00  0.00000000E+00
  0.00000000E+00  0.00000000E+00  0.00000000E+00
  0.00000000E+00  0.00000000E+00  0.00000000E+00
  0.00000000E+00  0.00000000E+00  0.00000000E+00
  0.00000000E+00  0.00000000E+00  0.00000000E+00
  0.00000000E+00  0.00000000E+00  0.00000000E+00
  0.00000000E+00  0.00000000E+00  0.00000000E+00
  0.00000000E+00  0.00000000E+00  0.00000000E+00
  0.00000000E+00  0.00000000E+00  0.00000000E+00
  0.00000000E+00  0.00000000E+00  0.00000000E+00
  0.00000000E+00  0.00000000E+00  0.00000000E+00
  0.00000000E+00  0.00000000E+00  0.00000000E+00
  0.00000000E+00  0.00000000E+00  0.00000000E+00
  0.00000000E+00  0.00000000E+00  0.00000000E+00
  0.00000000E+00  0.00000000E+00  0.00000000E+00
  0.00000000E+00  0.00000000E+00  0.00000000E+00
  0.00000000E+00  0.00000000E+00  0.00000000E+00
  0.00000000E+00  0.00000000E+00  0.00000000E+00
  0.00000000E+00  0.00000000E+00  0.00000000E+00
  0.00000000E+00  0.00000000E+00  0.00000000E+00
  0.00000000E+00  0.00000000E+00  0.00000000E+00
  0.00000000E+00  0.00000000E+00  0.00000000E+00
  0.00000000E+00  0.00000000E+00  0.00000000E+00
  0.00000000E+00  0.00000000E+00  0.00000000E+00
  0.00000000E+00  0.00000000E+00  0.00000000E+00
  0.00000000E+00  0.00000000E+00  0.00000000E+00
  0.00000000E+00  0.00000000E+00  0.00000000E+00
  0.00000000E+00  0.00000000E+00  0.00000000E+00
  0.00000000E+00  0.00000000E+00  0.00000000E+00
  0.00000000E+00  0.00000000E+00  0.00000000E+00
  0.00000000E+00  0.00000000E+00  0.00000000E+00
  0.00000000E+00  0.00000000E+00  0.00000000E+00
  0.00000000E+00  0.00000000E+00  0.00000000E+00
  0.00000000E+00  0.00000000E+00  0.00000000E+00
  0.00000000E+00  0.00000000E+00  0.00000000E+00
  0.00000000E+00  0.00000000E+00  0.00000000E+00
  0.00000000E+00  0.00000000E+00  0.00000000E+00
  0.00000000E+00  0.00000000E+00  0.00000000E+00
  0.00000000E+00  0.00000000E+00  0.00000000E+00
  0.00000000E+00  0.00000000E+00  0.00000000E+00
  0.00000000E+00  0.00000000E+00  0.00000000E+00
  0.00000000E+00  0.00000000E+00  0.00000000E+00
  0.00000000E+00  0.00000000E+00  0.00000000E+00
  0.00000000E+00  0.00000000E+00  0.00000000E+00
  0.00000000E+00  0.00000000E+00  0.00000000E+00
  0.00000000E+00  0.00000000E+00  0.00000000E+00
  0.00000000E+00  0.00000000E+00  0.00000000E+00
  0.00000000E+00  0.00000000E+00  0.00000000E+00
  0.00000000E+00  0.00000000E+00  0.00000000E+00
  0.00000000E+00  0.00000000E+00  0.00000000E+00
  0.00000000E+00  0.00000000E+00  0.00000000E+00
  0.00000000E+00  0.00000000E+00  0.00000000E+00
  0.00000000E+00  0.00000000E+00  0.00000000E+00
  0.00000000E+00  0.00000000E+00  0.00000000E+00
  0.00000000E+00  0.00000000E+00  0.00000000E+00
  0.00000000E+00  0.00000000E+00  0.00000000E+00
  0.00000000E+00  0.00000000E+00  0.00000000E+00
  0.00000000E+00  0.00000000E+00  0.00000000E+00
  0.00000000E+00  0.00000000E+00  0.00000000E+00
  0.00000000E+00  0.00000000E+00  0.00000000E+00
  0.00000000E+00  0.00000000E+00  0.00000000E+00
  0.00000000E+00  0.00000000E+00  0.00000000E+00
  0.00000000E+00  0.00000000E+00  0.00000000E+00
  0.00000000E+00  0.00000000E+00  0.00000000E+00
  0.00000000E+00  0.00000000E+00  0.00000000E+00
  0.00000000E+00  0.00000000E+00  0.00000000E+00
  0.00000000E+00  0.00000000E+00  0.00000000E+00
  0.00000000E+00  0.00000000E+00  0.00000000E+00
  0.00000000E+00  0.00000000E+00  0.00000000E+00
