Ir_Ru                                   
   1.00000000000000     
     6.0791199999999996    2.5824600000000002   -3.5374800000000000
     5.2260299999999997    8.2380600000000008    5.1473599999999999
     9.7509999999999994   -3.2503299999999999    6.5006700000000004
   Ir   Ru
    24    24
Direct
  0.3147165011364998  0.8012796969895869  0.1875912230604188
  0.1807188508565807  0.0405119956355631  0.6287349646717805
  0.0219154575641060  0.8238353802389355  0.3482647705506944
  0.6049181626877842  0.1558702055074254  0.2094809810421890
  0.0800231626352303  0.5413030035510976  0.0396213579395832
  0.6274549964271523  0.2422018825008174  0.7668300290530388
  0.3393636499928694  0.4181071700617308  0.6637279284084633
  0.6293571762104178  0.0505372617124206  0.6919349477119336
  0.2414194145075578  0.8161020708983002  0.8728173148853037
  0.7443568644750912  0.5487808422605414  0.2165772330778198
  0.8313715085456043  0.3880849380120334  0.0941644670269948
  0.0886180503006839  0.5171365803531423  0.4440355171341557
  0.0797836499520402  0.2840048961622113  0.4740593136164867
  0.1138122248631403  0.9550820900747332  0.4353347104284350
  0.7987253167629940  0.6864213362152518  0.3059002315885439
  0.5656839983854091  0.0132018906403340  0.0394226347278495
  0.5214781586445749  0.8689113694232885  0.9414621466543289
  0.3342674203239212  0.5610264317205793  0.8135698696682997
  0.1840558821728888  0.0692154942216737  0.0639348158857826
  0.2245904510837706  0.2622950316798635  0.6290011937608215
  0.9860712170066388  0.3451564171545601  0.8391373591961939
  0.7223133921481850  0.7298882667960052  0.4900369087047984
  0.6906195901443548  0.1005908348325153  0.3985429155926372
  0.2485998601864901  0.2072569821973628  0.1690016152250762
  0.7189176369529824  0.4789060552396586  0.4992018095403629
  0.5391477164211562  0.8780527231835455  0.6698822110176481
  0.3773965716491655  0.6136262130952214  0.3716665233726732
  0.8988577761636898  0.6021688748457346  0.6754860399275776
  0.4577510526093472  0.9919438934035878  0.4193964600605370
  0.6081870209434005  0.6402479332998439  0.9012767593014558
  0.8449350138759963  0.1450258608083457  0.9747906719046358
  0.6678663778035183  0.4940005046307959  0.7100826171890099
  0.8904256038556942  0.7754839846485674  0.0580847860618245
  0.3085802973926907  0.2867106971537605  0.9131494396623633
  0.8540431124905855  0.9363404389470404  0.1877896134274840
  0.3871154942936462  0.7357260374218382  0.5274455559637219
  0.0797908085533442  0.4639819390030932  0.2584214919517592
  0.9333694351856000  0.5671150494843327  0.8770770532274177
  0.4075061644025685  0.9073888719843696  0.2792173171794554
  0.4686441558924203  0.4088567610491337  0.2846116563725665
  0.4961716936945762  0.4372857256661786  0.9940322573716347
  0.9284833333728413  0.2709300023526880  0.3380003285222416
  0.8723383119449417  0.9988894849272606  0.8727193938416754
  0.2946565627926533  0.6417972436625962  0.1098316393749655
  0.8773410039859266  0.1117339632330294  0.5718553964718096
  0.1991138311993308  0.0882414791958339  0.8548008532865385
  0.5454822644575013  0.3073379687831951  0.4760478566950851
  0.9411420356455856  0.8130591303073695  0.7961031557363631
 
 -0.66785223E-02  0.38507483E-02 -0.47378657E-03
  0.38420317E-02 -0.34237056E-02  0.11291652E-02
 -0.17466325E-02 -0.46691607E-02 -0.36437967E-02
  0.42127380E-02 -0.57029709E-03 -0.34921446E-02
 -0.14679962E-02  0.39358909E-02 -0.21676646E-02
  0.12373903E-03 -0.20376068E-02  0.62384314E-02
  0.32842065E-02  0.23246233E-02 -0.10286794E-03
  0.11902580E-02 -0.29182556E-02  0.50384928E-02
  0.28417621E-03  0.24018250E-02  0.36662637E-02
  0.77931622E-02 -0.16634202E-02 -0.26463088E-02
  0.30210448E-02  0.12633020E-02 -0.48844778E-02
 -0.14574725E-02 -0.15929640E-03 -0.14861205E-03
 -0.22566064E-02 -0.19673254E-02 -0.24285201E-02
 -0.12133725E-04 -0.40645280E-02 -0.39160178E-02
 -0.19871536E-02  0.90871133E-03  0.38520195E-03
 -0.57567900E-03 -0.47502228E-02  0.61206775E-02
 -0.17139650E-02 -0.35287754E-02 -0.22340250E-02
  0.21701240E-02  0.28864199E-02  0.80508342E-03
 -0.11912431E-02 -0.32587672E-03 -0.51311861E-02
 -0.17288693E-02  0.32249048E-02 -0.19272390E-02
  0.43289793E-02  0.15282108E-02 -0.31285577E-02
 -0.21124453E-02  0.50189469E-02  0.33217979E-02
  0.15690078E-03 -0.70768517E-03 -0.10909492E-02
 -0.19140437E-02 -0.12796795E-02 -0.32834599E-02
  0.14095464E-02 -0.18336756E-02 -0.19852976E-02
 -0.10021241E-02  0.10967105E-01  0.17710031E-02
  0.11645321E-02 -0.28119432E-02 -0.91765134E-02
  0.72883171E-02  0.95633661E-02 -0.62946444E-03
  0.11917721E-02  0.13350227E-01  0.83381056E-02
 -0.11671229E-02  0.62933976E-03  0.23952130E-02
  0.19907702E-02 -0.59983207E-02  0.57892124E-02
 -0.38160239E-02  0.66353453E-02  0.44379110E-02
 -0.33397336E-02 -0.33670005E-02  0.73779351E-02
 -0.39339529E-02 -0.42345955E-02 -0.54582801E-02
 -0.60434943E-03  0.63745972E-03  0.23640798E-02
  0.87583241E-04  0.20155448E-02 -0.11366707E-02
 -0.69548435E-02  0.82802179E-02 -0.45108098E-02
  0.31431933E-02 -0.90815487E-03 -0.58328811E-03
  0.11483410E-02 -0.56984297E-02 -0.60293530E-02
 -0.54754743E-02  0.51461332E-02  0.42879380E-02
 -0.32617143E-03  0.17864385E-02  0.52434267E-02
 -0.24860706E-02 -0.89181561E-02  0.57664854E-02
 -0.42620658E-02  0.33315387E-03  0.11571944E-01
 -0.45274564E-02 -0.70731865E-02 -0.86875057E-02
 -0.48460898E-02 -0.23039105E-03 -0.40343822E-03
  0.69651534E-02 -0.70061013E-02  0.18772693E-02
 -0.27654366E-02 -0.76429852E-02  0.48796259E-02
  0.10534675E-01  0.53596250E-02 -0.88408541E-03
 
           1
   1.50000000000000     
  0.24143261E-01  0.19441246E-02  0.21578694E-02  0.22092264E-01
  0.31471650E+00  0.80127970E+00  0.18759122E+00
  0.18071885E+00  0.40511996E-01  0.62873496E+00
  0.21915458E-01  0.82383538E+00  0.34826477E+00
  0.60491816E+00  0.15587021E+00  0.20948098E+00
  0.80023163E-01  0.54130300E+00  0.39621358E-01
  0.62745500E+00  0.24220188E+00  0.76683003E+00
  0.33936365E+00  0.41810717E+00  0.66372793E+00
  0.62935718E+00  0.50537262E-01  0.69193495E+00
  0.24141941E+00  0.81610207E+00  0.87281731E+00
  0.74435686E+00  0.54878084E+00  0.21657723E+00
  0.83137151E+00  0.38808494E+00  0.94164467E-01
  0.88618050E-01  0.51713658E+00  0.44403552E+00
  0.79783650E-01  0.28400490E+00  0.47405931E+00
  0.11381222E+00  0.95508209E+00  0.43533471E+00
  0.79872532E+00  0.68642134E+00  0.30590023E+00
  0.56568400E+00  0.13201891E-01  0.39422635E-01
  0.52147816E+00  0.86891137E+00  0.94146215E+00
  0.33426742E+00  0.56102643E+00  0.81356987E+00
  0.18405588E+00  0.69215494E-01  0.63934816E-01
  0.22459045E+00  0.26229503E+00  0.62900119E+00
  0.98607122E+00  0.34515642E+00  0.83913736E+00
  0.72231339E+00  0.72988827E+00  0.49003691E+00
  0.69061959E+00  0.10059083E+00  0.39854292E+00
  0.24859986E+00  0.20725698E+00  0.16900162E+00
  0.71891764E+00  0.47890606E+00  0.49920181E+00
  0.53914772E+00  0.87805272E+00  0.66988221E+00
  0.37739657E+00  0.61362621E+00  0.37166652E+00
  0.89885778E+00  0.60216887E+00  0.67548604E+00
  0.45775105E+00  0.99194389E+00  0.41939646E+00
  0.60818702E+00  0.64024793E+00  0.90127676E+00
  0.84493501E+00  0.14502586E+00  0.97479067E+00
  0.66786638E+00  0.49400050E+00  0.71008262E+00
  0.89042560E+00  0.77548398E+00  0.58084786E-01
  0.30858030E+00  0.28671070E+00  0.91314944E+00
  0.85404311E+00  0.93634044E+00  0.18778961E+00
  0.38711549E+00  0.73572604E+00  0.52744556E+00
  0.79790809E-01  0.46398194E+00  0.25842149E+00
  0.93336944E+00  0.56711505E+00  0.87707705E+00
  0.40750616E+00  0.90738887E+00  0.27921732E+00
  0.46864416E+00  0.40885676E+00  0.28461166E+00
  0.49617169E+00  0.43728573E+00  0.99403226E+00
  0.92848333E+00  0.27093000E+00  0.33800033E+00
  0.87233831E+00  0.99888948E+00  0.87271939E+00
  0.29465656E+00  0.64179724E+00  0.10983164E+00
  0.87734100E+00  0.11173396E+00  0.57185540E+00
  0.19911383E+00  0.88241479E-01  0.85480085E+00
  0.54548226E+00  0.30733797E+00  0.47604786E+00
  0.94114204E+00  0.81305913E+00  0.79610316E+00
  0.00000000E+00  0.00000000E+00  0.00000000E+00
  0.00000000E+00  0.00000000E+00  0.00000000E+00
  0.00000000E+00  0.00000000E+00  0.00000000E+00
  0.00000000E+00  0.00000000E+00  0.00000000E+00
  0.00000000E+00  0.00000000E+00  0.00000000E+00
  0.00000000E+00  0.00000000E+00  0.00000000E+00
  0.00000000E+00  0.00000000E+00  0.00000000E+00
  0.00000000E+00  0.00000000E+00  0.00000000E+00
  0.00000000E+00  0.00000000E+00  0.00000000E+00
  0.00000000E+00  0.00000000E+00  0.00000000E+00
  0.00000000E+00  0.00000000E+00  0.00000000E+00
  0.00000000E+00  0.00000000E+00  0.00000000E+00
  0.00000000E+00  0.00000000E+00  0.00000000E+00
  0.00000000E+00  0.00000000E+00  0.00000000E+00
  0.00000000E+00  0.00000000E+00  0.00000000E+00
  0.00000000E+00  0.00000000E+00  0.00000000E+00
  0.00000000E+00  0.00000000E+00  0.00000000E+00
  0.00000000E+00  0.00000000E+00  0.00000000E+00
  0.00000000E+00  0.00000000E+00  0.00000000E+00
  0.00000000E+00  0.00000000E+00  0.00000000E+00
  0.00000000E+00  0.00000000E+00  0.00000000E+00
  0.00000000E+00  0.00000000E+00  0.00000000E+00
  0.00000000E+00  0.00000000E+00  0.00000000E+00
  0.00000000E+00  0.00000000E+00  0.00000000E+00
  0.00000000E+00  0.00000000E+00  0.00000000E+00
  0.00000000E+00  0.00000000E+00  0.00000000E+00
  0.00000000E+00  0.00000000E+00  0.00000000E+00
  0.00000000E+00  0.00000000E+00  0.00000000E+00
  0.00000000E+00  0.00000000E+00  0.00000000E+00
  0.00000000E+00  0.00000000E+00  0.00000000E+00
  0.00000000E+00  0.00000000E+00  0.00000000E+00
  0.00000000E+00  0.00000000E+00  0.00000000E+00
  0.00000000E+00  0.00000000E+00  0.00000000E+00
  0.00000000E+00  0.00000000E+00  0.00000000E+00
  0.00000000E+00  0.00000000E+00  0.00000000E+00
  0.00000000E+00  0.00000000E+00  0.00000000E+00
  0.00000000E+00  0.00000000E+00  0.00000000E+00
  0.00000000E+00  0.00000000E+00  0.00000000E+00
  0.00000000E+00  0.00000000E+00  0.00000000E+00
  0.00000000E+00  0.00000000E+00  0.00000000E+00
  0.00000000E+00  0.00000000E+00  0.00000000E+00
  0.00000000E+00  0.00000000E+00  0.00000000E+00
  0.00000000E+00  0.00000000E+00  0.00000000E+00
  0.00000000E+00  0.00000000E+00  0.00000000E+00
  0.00000000E+00  0.00000000E+00  0.00000000E+00
  0.00000000E+00  0.00000000E+00  0.00000000E+00
  0.00000000E+00  0.00000000E+00  0.00000000E+00
  0.00000000E+00  0.00000000E+00  0.00000000E+00
  0.00000000E+00  0.00000000E+00  0.00000000E+00
  0.00000000E+00  0.00000000E+00  0.00000000E+00
  0.00000000E+00  0.00000000E+00  0.00000000E+00
  0.00000000E+00  0.00000000E+00  0.00000000E+00
  0.00000000E+00  0.00000000E+00  0.00000000E+00
  0.00000000E+00  0.00000000E+00  0.00000000E+00
  0.00000000E+00  0.00000000E+00  0.00000000E+00
  0.00000000E+00  0.00000000E+00  0.00000000E+00
  0.00000000E+00  0.00000000E+00  0.00000000E+00
  0.00000000E+00  0.00000000E+00  0.00000000E+00
  0.00000000E+00  0.00000000E+00  0.00000000E+00
  0.00000000E+00  0.00000000E+00  0.00000000E+00
  0.00000000E+00  0.00000000E+00  0.00000000E+00
  0.00000000E+00  0.00000000E+00  0.00000000E+00
  0.00000000E+00  0.00000000E+00  0.00000000E+00
  0.00000000E+00  0.00000000E+00  0.00000000E+00
  0.00000000E+00  0.00000000E+00  0.00000000E+00
  0.00000000E+00  0.00000000E+00  0.00000000E+00
  0.00000000E+00  0.00000000E+00  0.00000000E+00
  0.00000000E+00  0.00000000E+00  0.00000000E+00
  0.00000000E+00  0.00000000E+00  0.00000000E+00
  0.00000000E+00  0.00000000E+00  0.00000000E+00
  0.00000000E+00  0.00000000E+00  0.00000000E+00
  0.00000000E+00  0.00000000E+00  0.00000000E+00
  0.00000000E+00  0.00000000E+00  0.00000000E+00
  0.00000000E+00  0.00000000E+00  0.00000000E+00
  0.00000000E+00  0.00000000E+00  0.00000000E+00
  0.00000000E+00  0.00000000E+00  0.00000000E+00
  0.00000000E+00  0.00000000E+00  0.00000000E+00
  0.00000000E+00  0.00000000E+00  0.00000000E+00
  0.00000000E+00  0.00000000E+00  0.00000000E+00
  0.00000000E+00  0.00000000E+00  0.00000000E+00
  0.00000000E+00  0.00000000E+00  0.00000000E+00
  0.00000000E+00  0.00000000E+00  0.00000000E+00
  0.00000000E+00  0.00000000E+00  0.00000000E+00
  0.00000000E+00  0.00000000E+00  0.00000000E+00
  0.00000000E+00  0.00000000E+00  0.00000000E+00
  0.00000000E+00  0.00000000E+00  0.00000000E+00
  0.00000000E+00  0.00000000E+00  0.00000000E+00
  0.00000000E+00  0.00000000E+00  0.00000000E+00
  0.00000000E+00  0.00000000E+00  0.00000000E+00
  0.00000000E+00  0.00000000E+00  0.00000000E+00
  0.00000000E+00  0.00000000E+00  0.00000000E+00
  0.00000000E+00  0.00000000E+00  0.00000000E+00
  0.00000000E+00  0.00000000E+00  0.00000000E+00
  0.00000000E+00  0.00000000E+00  0.00000000E+00
  0.00000000E+00  0.00000000E+00  0.00000000E+00
  0.00000000E+00  0.00000000E+00  0.00000000E+00
