title                                   
   1.00000000000000     
     5.7915705156649970    2.7850254923724234   -3.4645200693998817
     4.7333825386940624    8.4775257049319883    4.8314750065462810
     9.7797208448367208   -3.2599069482782101    6.5198138965536723
   Ir   Ru
    24    24
Direct
  0.9321753193280086  0.2748499081469478  0.3521701449175145
  0.0651038869944094  0.7172378145756101  0.1053834981033151
  0.2889738607000304  0.8726141741421082  0.0964008197714071
  0.3331474566198696  0.0372157161613519  0.1607450465155379
  0.7260103771129328  0.5840523711078091  0.4053397515719370
  0.9265284031620665  0.2955152737241230  0.5681040969775207
  0.5781452894712290  0.3843226802455387  0.4748584179586842
  0.6695302238617553  0.1923846367737865  0.7348288392915493
  0.5561393783673734  0.7029743957078812  0.9454306234085798
  0.7233520698634321  0.9523942153924438  0.1618250780643401
  0.4260781674731422  0.2217929510651719  0.1844715911725514
  0.9751693428691995  0.7294023442333738  0.3249182655064640
  0.0775096448028726  0.0686328732760378  0.7161421798766671
  0.5022772139272360  0.0314028496957346  0.5291175323127294
  0.8020206499430399  0.9517241506968775  0.9492339770362036
  0.6394196265602573  0.5362962881826044  0.6311986071675502
  0.2759327676522332  0.4555047634826342  0.6457235844855321
  0.5372571358699872  0.7509642857157975  0.7047609914020327
  0.3767596305105176  0.6299015604433571  0.2949228920924700
  0.3456869215525378  0.1777542975068951  0.6738514894824736
  0.8112471500224097  0.2051273548946770  0.2113264454843408
  0.7374654383385590  0.9847442991306232  0.3586015014356151
  0.2717628230412899  0.2516490175775641  0.4172785875215997
  0.1052953226601768  0.7755992298626027  0.7136367538658605
  0.5169457651325600  0.2443148484017626  0.9604720275138022
  0.1262511210631783  0.3081385048741697  0.0595326667479629
  0.7662242125996113  0.4679768732088672  0.1529788702451395
  0.8820995524599465  0.8272976056556683  0.5643574529409523
  0.7333892367831080  0.8514538290787358  0.7913273844158697
  0.8667487080876585  0.0651139897694150  0.5326408304574847
  0.1220689313500239  0.9093380924793470  0.3228910290875177
  0.3676731873207171  0.4828645172757421  0.8275521547828961
  0.2218657148946576  0.8761803780728499  0.8925617356874824
  0.0368471894913942  0.6239752169770310  0.9615371452897635
  0.4143884082807634  0.4373531538920757  0.2115023454608020
  0.6850207046944783  0.7382305123351764  0.1371011896069450
  0.0532254300712267  0.4617116629446795  0.2621922269978216
  0.9394072702841789  0.3005203131806578  0.7759732819141856
  0.2568824106591253  0.7190286133514192  0.5278901255207826
  0.2264709846530091  0.3044760098205633  0.8566668165201244
  0.7033788828430444  0.3485703524428784  0.0039315171945666
  0.4637894524173183  0.0203997746356171  0.9067176929421262
  0.0374316297949503  0.1152029970068480  0.9970243683827333
  0.3873231846903385  0.5297925426771345  0.9978375015732389
  0.5740265121996112  0.7902199920482934  0.4816087595586606
  0.2951111068936212  0.0021682246071812  0.3753192934365296
  0.1714286233083825  0.4825027210241025  0.4477447746941305
  0.8466841892314024  0.5747815037124498  0.8265807876056601
Lattice velocities
 -0.76876610E-03  0.15947118E-02 -0.14050632E-02
  0.12080843E-02 -0.38893175E-03 -0.26549577E-03
  0.32114789E-03  0.63321025E-03 -0.22506606E-03
 
  0.47627966E-02 -0.38195536E-02 -0.58298260E-02
 -0.43257408E-02 -0.31989643E-02 -0.43453871E-02
 -0.31618219E-02 -0.64860632E-02  0.33057099E-02
  0.29082454E-02  0.45783304E-03  0.91369834E-02
  0.33274912E-02 -0.52924780E-02 -0.11184629E-02
  0.55450675E-02 -0.72601094E-02  0.47185911E-02
 -0.14634155E-02 -0.57008164E-02 -0.14897197E-02
  0.89697364E-03  0.25620892E-02  0.43888041E-02
 -0.32985552E-02  0.11127473E-02  0.10430077E-03
  0.67363515E-03  0.15124289E-02 -0.11225789E-02
  0.17919839E-02  0.17407122E-02  0.34650942E-02
 -0.78544749E-02 -0.52513193E-03  0.54531119E-03
 -0.59422017E-03  0.50891030E-02  0.41333239E-02
  0.68197238E-03  0.13567307E-02  0.55270795E-03
 -0.94238845E-02  0.11509932E-03 -0.90364907E-03
 -0.13360904E-02  0.30588208E-02  0.35439857E-02
 -0.40689789E-02  0.52684065E-02  0.11274833E-02
 -0.15107519E-02  0.28003077E-02  0.21217246E-02
  0.18876768E-02 -0.40883064E-02  0.53770616E-02
 -0.50293775E-02  0.28241198E-02 -0.58268128E-03
 -0.17934134E-02  0.98893484E-02 -0.39565959E-02
  0.75514193E-03 -0.28497353E-02 -0.20414933E-02
 -0.29913493E-02 -0.30113214E-02 -0.41865070E-02
  0.37704747E-03 -0.12050397E-02 -0.33117333E-02
 -0.30121790E-02  0.67360588E-02 -0.39733108E-02
 -0.27399794E-02 -0.35378801E-03  0.41913283E-02
  0.59304888E-02  0.10307328E-01 -0.20213855E-02
  0.46678393E-02  0.27767707E-02  0.71674917E-02
 -0.42965898E-02  0.70946721E-02  0.27055814E-02
 -0.12497305E-01  0.47214096E-02  0.17225115E-02
  0.21872503E-02  0.89959603E-02  0.91978942E-03
  0.10796871E-02  0.14803046E-02 -0.27468085E-02
  0.34721012E-02 -0.75384419E-02 -0.14858904E-02
  0.45423046E-02  0.10348607E-01  0.10495024E-02
 -0.23855988E-02 -0.52375883E-02  0.11330096E-03
  0.32397285E-02 -0.47615765E-02 -0.40890636E-02
 -0.31158465E-02  0.45895108E-02  0.16178544E-02
 -0.20002455E-02 -0.10374782E-01  0.54170116E-02
  0.70998993E-03  0.90890576E-02  0.88790075E-02
 -0.38651749E-05 -0.10781564E-02 -0.24994625E-02
 -0.51337006E-02  0.12283455E-03 -0.62346204E-02
 -0.54682796E-02  0.55041696E-02 -0.35635062E-02
  0.72636393E-02  0.53296467E-02 -0.67492973E-03
 -0.61253893E-02 -0.64411681E-02  0.40272913E-03
 -0.56151528E-02  0.39758662E-02  0.96419134E-02
  0.53325069E-02 -0.57570044E-02 -0.22215696E-02
  0.14584299E-02  0.86900375E-04  0.56030752E-02
  0.24661411E-02 -0.12553588E-02  0.58395308E-02
 
           1
   1.50000000000000     
  0.10000000E+01  0.00000000E+00  0.00000000E+00  0.00000000E+00
  0.93217532E+00  0.27484991E+00  0.35217014E+00
  0.65103887E-01  0.71723781E+00  0.10538350E+00
  0.28897386E+00  0.87261417E+00  0.96400820E-01
  0.33314746E+00  0.37215716E-01  0.16074505E+00
  0.72601038E+00  0.58405237E+00  0.40533975E+00
  0.92652840E+00  0.29551527E+00  0.56810410E+00
  0.57814529E+00  0.38432268E+00  0.47485842E+00
  0.66953022E+00  0.19238464E+00  0.73482884E+00
  0.55613938E+00  0.70297440E+00  0.94543062E+00
  0.72335207E+00  0.95239422E+00  0.16182508E+00
  0.42607817E+00  0.22179295E+00  0.18447159E+00
  0.97516934E+00  0.72940234E+00  0.32491827E+00
  0.77509645E-01  0.68632873E-01  0.71614218E+00
  0.50227721E+00  0.31402850E-01  0.52911753E+00
  0.80202065E+00  0.95172415E+00  0.94923398E+00
  0.63941963E+00  0.53629629E+00  0.63119861E+00
  0.27593277E+00  0.45550476E+00  0.64572358E+00
  0.53725714E+00  0.75096429E+00  0.70476099E+00
  0.37675963E+00  0.62990156E+00  0.29492289E+00
  0.34568692E+00  0.17775430E+00  0.67385149E+00
  0.81124715E+00  0.20512735E+00  0.21132645E+00
  0.73746544E+00  0.98474430E+00  0.35860150E+00
  0.27176282E+00  0.25164902E+00  0.41727859E+00
  0.10529532E+00  0.77559923E+00  0.71363675E+00
  0.51694577E+00  0.24431485E+00  0.96047203E+00
  0.12625112E+00  0.30813850E+00  0.59532667E-01
  0.76622421E+00  0.46797687E+00  0.15297887E+00
  0.88209955E+00  0.82729761E+00  0.56435745E+00
  0.73338924E+00  0.85145383E+00  0.79132738E+00
  0.86674871E+00  0.65113990E-01  0.53264083E+00
  0.12206893E+00  0.90933809E+00  0.32289103E+00
  0.36767319E+00  0.48286452E+00  0.82755215E+00
  0.22186571E+00  0.87618038E+00  0.89256174E+00
  0.36847189E-01  0.62397522E+00  0.96153715E+00
  0.41438841E+00  0.43735315E+00  0.21150235E+00
  0.68502070E+00  0.73823051E+00  0.13710119E+00
  0.53225430E-01  0.46171166E+00  0.26219223E+00
  0.93940727E+00  0.30052031E+00  0.77597328E+00
  0.25688241E+00  0.71902861E+00  0.52789013E+00
  0.22647098E+00  0.30447601E+00  0.85666682E+00
  0.70337888E+00  0.34857035E+00  0.39315172E-02
  0.46378945E+00  0.20399775E-01  0.90671769E+00
  0.37431630E-01  0.11520300E+00  0.99702437E+00
  0.38732318E+00  0.52979254E+00  0.99783750E+00
  0.57402651E+00  0.79021999E+00  0.48160876E+00
  0.29511111E+00  0.21682246E-02  0.37531929E+00
  0.17142862E+00  0.48250272E+00  0.44774477E+00
  0.84668419E+00  0.57478150E+00  0.82658079E+00
  0.00000000E+00  0.00000000E+00  0.00000000E+00
  0.00000000E+00  0.00000000E+00  0.00000000E+00
  0.00000000E+00  0.00000000E+00  0.00000000E+00
  0.00000000E+00  0.00000000E+00  0.00000000E+00
  0.00000000E+00  0.00000000E+00  0.00000000E+00
  0.00000000E+00  0.00000000E+00  0.00000000E+00
  0.00000000E+00  0.00000000E+00  0.00000000E+00
  0.00000000E+00  0.00000000E+00  0.00000000E+00
  0.00000000E+00  0.00000000E+00  0.00000000E+00
  0.00000000E+00  0.00000000E+00  0.00000000E+00
  0.00000000E+00  0.00000000E+00  0.00000000E+00
  0.00000000E+00  0.00000000E+00  0.00000000E+00
  0.00000000E+00  0.00000000E+00  0.00000000E+00
  0.00000000E+00  0.00000000E+00  0.00000000E+00
  0.00000000E+00  0.00000000E+00  0.00000000E+00
  0.00000000E+00  0.00000000E+00  0.00000000E+00
  0.00000000E+00  0.00000000E+00  0.00000000E+00
  0.00000000E+00  0.00000000E+00  0.00000000E+00
  0.00000000E+00  0.00000000E+00  0.00000000E+00
  0.00000000E+00  0.00000000E+00  0.00000000E+00
  0.00000000E+00  0.00000000E+00  0.00000000E+00
  0.00000000E+00  0.00000000E+00  0.00000000E+00
  0.00000000E+00  0.00000000E+00  0.00000000E+00
  0.00000000E+00  0.00000000E+00  0.00000000E+00
  0.00000000E+00  0.00000000E+00  0.00000000E+00
  0.00000000E+00  0.00000000E+00  0.00000000E+00
  0.00000000E+00  0.00000000E+00  0.00000000E+00
  0.00000000E+00  0.00000000E+00  0.00000000E+00
  0.00000000E+00  0.00000000E+00  0.00000000E+00
  0.00000000E+00  0.00000000E+00  0.00000000E+00
  0.00000000E+00  0.00000000E+00  0.00000000E+00
  0.00000000E+00  0.00000000E+00  0.00000000E+00
  0.00000000E+00  0.00000000E+00  0.00000000E+00
  0.00000000E+00  0.00000000E+00  0.00000000E+00
  0.00000000E+00  0.00000000E+00  0.00000000E+00
  0.00000000E+00  0.00000000E+00  0.00000000E+00
  0.00000000E+00  0.00000000E+00  0.00000000E+00
  0.00000000E+00  0.00000000E+00  0.00000000E+00
  0.00000000E+00  0.00000000E+00  0.00000000E+00
  0.00000000E+00  0.00000000E+00  0.00000000E+00
  0.00000000E+00  0.00000000E+00  0.00000000E+00
  0.00000000E+00  0.00000000E+00  0.00000000E+00
  0.00000000E+00  0.00000000E+00  0.00000000E+00
  0.00000000E+00  0.00000000E+00  0.00000000E+00
  0.00000000E+00  0.00000000E+00  0.00000000E+00
  0.00000000E+00  0.00000000E+00  0.00000000E+00
  0.00000000E+00  0.00000000E+00  0.00000000E+00
  0.00000000E+00  0.00000000E+00  0.00000000E+00
  0.00000000E+00  0.00000000E+00  0.00000000E+00
  0.00000000E+00  0.00000000E+00  0.00000000E+00
  0.00000000E+00  0.00000000E+00  0.00000000E+00
  0.00000000E+00  0.00000000E+00  0.00000000E+00
  0.00000000E+00  0.00000000E+00  0.00000000E+00
  0.00000000E+00  0.00000000E+00  0.00000000E+00
  0.00000000E+00  0.00000000E+00  0.00000000E+00
  0.00000000E+00  0.00000000E+00  0.00000000E+00
  0.00000000E+00  0.00000000E+00  0.00000000E+00
  0.00000000E+00  0.00000000E+00  0.00000000E+00
  0.00000000E+00  0.00000000E+00  0.00000000E+00
  0.00000000E+00  0.00000000E+00  0.00000000E+00
  0.00000000E+00  0.00000000E+00  0.00000000E+00
  0.00000000E+00  0.00000000E+00  0.00000000E+00
  0.00000000E+00  0.00000000E+00  0.00000000E+00
  0.00000000E+00  0.00000000E+00  0.00000000E+00
  0.00000000E+00  0.00000000E+00  0.00000000E+00
  0.00000000E+00  0.00000000E+00  0.00000000E+00
  0.00000000E+00  0.00000000E+00  0.00000000E+00
  0.00000000E+00  0.00000000E+00  0.00000000E+00
  0.00000000E+00  0.00000000E+00  0.00000000E+00
  0.00000000E+00  0.00000000E+00  0.00000000E+00
  0.00000000E+00  0.00000000E+00  0.00000000E+00
  0.00000000E+00  0.00000000E+00  0.00000000E+00
  0.00000000E+00  0.00000000E+00  0.00000000E+00
  0.00000000E+00  0.00000000E+00  0.00000000E+00
  0.00000000E+00  0.00000000E+00  0.00000000E+00
  0.00000000E+00  0.00000000E+00  0.00000000E+00
  0.00000000E+00  0.00000000E+00  0.00000000E+00
  0.00000000E+00  0.00000000E+00  0.00000000E+00
  0.00000000E+00  0.00000000E+00  0.00000000E+00
  0.00000000E+00  0.00000000E+00  0.00000000E+00
  0.00000000E+00  0.00000000E+00  0.00000000E+00
  0.00000000E+00  0.00000000E+00  0.00000000E+00
  0.00000000E+00  0.00000000E+00  0.00000000E+00
  0.00000000E+00  0.00000000E+00  0.00000000E+00
  0.00000000E+00  0.00000000E+00  0.00000000E+00
  0.00000000E+00  0.00000000E+00  0.00000000E+00
  0.00000000E+00  0.00000000E+00  0.00000000E+00
  0.00000000E+00  0.00000000E+00  0.00000000E+00
  0.00000000E+00  0.00000000E+00  0.00000000E+00
  0.00000000E+00  0.00000000E+00  0.00000000E+00
  0.00000000E+00  0.00000000E+00  0.00000000E+00
  0.00000000E+00  0.00000000E+00  0.00000000E+00
  0.00000000E+00  0.00000000E+00  0.00000000E+00
  0.00000000E+00  0.00000000E+00  0.00000000E+00
  0.00000000E+00  0.00000000E+00  0.00000000E+00
  0.00000000E+00  0.00000000E+00  0.00000000E+00
