title                                   
   1.00000000000000     
     9.6436106747772641    6.6860743383231815    1.2071794702817291
     5.1860401405105385   11.1180563106698820    5.5984828199225660
     8.9274329063552109   -2.9758109687846446    5.9516219375687092
   Ir   Ru
    24    24
Direct
  0.3922252037900317  0.4278520365644514  0.3147610645360944
  0.8274178508250094  0.0768247398051873  0.1819435791293227
  0.6659093297773941  0.0722500786735563  0.5261953642641499
  0.4465424740962550  0.1060794432905585  0.9489841091906758
  0.3682154083893898  0.2326202902962613  0.2013436475023851
  0.9433469311784831  0.3869200893074977  0.3779044494320887
  0.2400780174266176  0.7072740755732803  0.8367822431641682
  0.7868942671255551  0.0331716046465315  0.7547324514655763
  0.6023702184360262  0.6569568198136347  0.6307025438180145
  0.4900539771710701  0.3664532080657741  0.8931416391025311
  0.9715207790652396  0.2769250030882476  0.2046975744826370
  0.5519356565477418  0.6883682412490832  0.2693136584905075
  0.8156419806902846  0.8185710028577257  0.6625214632581512
  0.1508540953350554  0.0062219338403941  0.6784917482275437
  0.8787556456585925  0.1032725854139910  0.9407124501292734
  0.9777254743142201  0.2558155740536103  0.8640993222554605
  0.5263145686616797  0.8982487301213058  0.1522084194845378
  0.2448474477966005  0.9139701534459632  0.8840751797120572
  0.5809176456848784  0.3290966576321955  0.4667436294381536
  0.6237945447486954  0.9693712193233774  0.3141124383632267
  0.1815276961331808  0.6898683545256112  0.5043305126656635
  0.2748883929103872  0.1862129054385030  0.7980720385189601
  0.8981091153602474  0.4614953157089066  0.0060194245589624
  0.8173895263855214  0.2387317326415870  0.5852808321493738
  0.0648515149248824  0.7147376002495366  0.7639843731738529
  0.7458497865547996  0.6964217793191558  0.3309548245402179
  0.7988373988411207  0.9638975104766520  0.0048906431127824
  0.0575632864299957  0.7753950911812140  0.3223576148167893
  0.3404536536477525  0.9933531968701201  0.9863742669781556
  0.3403454282550605  0.3271065490370108  0.7848794747208249
  0.8165693756357930  0.7723018040843931  0.4517838363417895
  0.7604375348773735  0.5879403578897695  0.7989949770649685
  0.5065198140503164  0.4592307541587473  0.0453199287022126
  0.9110407684333547  0.6982603257389726  0.0595593201684961
  0.1174679878546491  0.9667619434397299  0.1987306763791816
  0.0434742850078204  0.4401156971673627  0.1108896018302637
  0.1390358894852447  0.5729526108074882  0.1784857274443984
  0.1702381186249136  0.4198921593644107  0.6079245837001194
  0.1864341079737545  0.1106937383275931  0.4305231240711095
  0.1915361618363896  0.2120249090868569  0.6026043452988729
  0.5338882341618911  0.6403510537599260  0.0658202493358353
  0.0328387662627042  0.9656848646186207  0.4745300810981410
  0.0717939422436512  0.4252827950117733  0.4695197464234592
  0.4935145403418895  0.9024259969513456  0.6803791517283404
  0.6360814471977120  0.4344389088302804  0.2218310168157112
  0.4085459738633162  0.6813521356523682  0.5519451332869940
  0.9183717846548863  0.6352974229400542  0.8580333109181735
  0.6563871541222176  0.4771077983888508  0.7835831391387953
Lattice velocities
  0.12150570E-02  0.33908974E-02  0.28349419E-02
  0.15359600E-02  0.28965293E-03 -0.26785931E-02
 -0.13586857E-02  0.18595542E-03  0.16404653E-02
 
  0.82587093E-03  0.86264108E-03  0.75056832E-02
 -0.60840161E-02 -0.55849751E-02 -0.30974202E-02
 -0.20573585E-02 -0.10956035E-02 -0.95370185E-02
 -0.10242080E-01 -0.31424226E-02 -0.46976523E-02
  0.13628381E-02 -0.22513579E-02  0.21296826E-02
 -0.21997347E-02 -0.32934926E-02  0.21444561E-02
  0.47062405E-03  0.23330738E-02 -0.22173324E-02
  0.72201838E-02 -0.64763190E-02 -0.93300564E-02
 -0.40653975E-02 -0.20297960E-02  0.12875427E-02
 -0.89983376E-02  0.26325174E-02 -0.19323752E-02
 -0.22025035E-02 -0.74248031E-03  0.59872247E-02
  0.23002467E-02 -0.76632188E-02  0.40751584E-02
  0.48083029E-02 -0.11442315E-02  0.23731405E-02
  0.19164050E-02 -0.30118500E-02 -0.16836470E-02
  0.36607255E-02  0.43352303E-02  0.76847754E-02
  0.13618597E-02  0.55234007E-02 -0.46832746E-02
 -0.14134583E-02 -0.48236436E-03 -0.17158519E-02
 -0.19972913E-02  0.88600161E-02 -0.30321875E-02
  0.39262292E-02  0.29127636E-02  0.29023750E-02
  0.40781124E-02  0.14350492E-02  0.37928604E-02
 -0.44853326E-02  0.55719690E-02  0.49477477E-02
 -0.43048387E-02  0.25172549E-03  0.87574022E-03
 -0.49042992E-02  0.57934485E-03 -0.64267955E-03
  0.79735640E-02 -0.41839273E-02 -0.57175539E-02
  0.10276338E-01 -0.40661074E-02 -0.16620435E-01
  0.21417304E-02 -0.14602516E-02 -0.38310468E-02
 -0.54045361E-02 -0.17736339E-02  0.15383628E-04
 -0.58731043E-02 -0.93772729E-02  0.58977903E-03
  0.15102968E-02 -0.48713831E-02 -0.76149049E-02
 -0.18860360E-02 -0.20791403E-02 -0.45967822E-02
 -0.17080906E-02 -0.50394793E-02  0.36969892E-02
  0.10902527E-01  0.24204408E-02 -0.76118005E-03
  0.35945360E-02  0.42934429E-02  0.13947489E-02
 -0.76238686E-02  0.61998753E-02  0.32938939E-03
 -0.12416643E-03  0.73889102E-03  0.35825842E-02
 -0.11436350E-01  0.26361723E-02 -0.19258606E-02
  0.10519266E-02 -0.58696305E-02 -0.49932516E-02
 -0.97986179E-02 -0.12030163E-02  0.71495387E-02
 -0.30728201E-03 -0.98968703E-03 -0.36458021E-02
 -0.58725086E-02  0.24985762E-02 -0.24005519E-02
  0.72891762E-03 -0.89268862E-03  0.21939744E-02
  0.17464489E-02 -0.63882442E-02 -0.67953351E-02
 -0.27720178E-02 -0.13170029E-02 -0.25270233E-02
  0.25128583E-02 -0.83959071E-02 -0.57812536E-02
  0.10456716E-01  0.49998280E-02 -0.35109606E-04
  0.74947569E-02 -0.84032754E-03 -0.15795869E-01
 -0.68319389E-02 -0.29069075E-02 -0.23525761E-02
  0.37401726E-02 -0.20933140E-02  0.57960411E-02
 
           1
   3.00000000000000     
  0.10000000E+01  0.00000000E+00  0.00000000E+00  0.00000000E+00
  0.39222520E+00  0.42785204E+00  0.31476106E+00
  0.82741785E+00  0.76824740E-01  0.18194358E+00
  0.66590933E+00  0.72250079E-01  0.52619536E+00
  0.44654247E+00  0.10607944E+00  0.94898411E+00
  0.36821541E+00  0.23262029E+00  0.20134365E+00
  0.94334693E+00  0.38692009E+00  0.37790445E+00
  0.24007802E+00  0.70727408E+00  0.83678224E+00
  0.78689427E+00  0.33171605E-01  0.75473245E+00
  0.60237022E+00  0.65695682E+00  0.63070254E+00
  0.49005398E+00  0.36645321E+00  0.89314164E+00
  0.97152078E+00  0.27692500E+00  0.20469757E+00
  0.55193566E+00  0.68836824E+00  0.26931366E+00
  0.81564198E+00  0.81857100E+00  0.66252146E+00
  0.15085410E+00  0.62219338E-02  0.67849175E+00
  0.87875565E+00  0.10327259E+00  0.94071245E+00
  0.97772547E+00  0.25581557E+00  0.86409932E+00
  0.52631457E+00  0.89824873E+00  0.15220842E+00
  0.24484745E+00  0.91397015E+00  0.88407518E+00
  0.58091765E+00  0.32909666E+00  0.46674363E+00
  0.62379454E+00  0.96937122E+00  0.31411244E+00
  0.18152770E+00  0.68986835E+00  0.50433051E+00
  0.27488839E+00  0.18621291E+00  0.79807204E+00
  0.89810912E+00  0.46149532E+00  0.60194246E-02
  0.81738953E+00  0.23873173E+00  0.58528083E+00
  0.64851515E-01  0.71473760E+00  0.76398437E+00
  0.74584979E+00  0.69642178E+00  0.33095482E+00
  0.79883740E+00  0.96389751E+00  0.48906431E-02
  0.57563286E-01  0.77539509E+00  0.32235761E+00
  0.34045365E+00  0.99335320E+00  0.98637427E+00
  0.34034543E+00  0.32710655E+00  0.78487947E+00
  0.81656938E+00  0.77230180E+00  0.45178384E+00
  0.76043753E+00  0.58794036E+00  0.79899498E+00
  0.50651981E+00  0.45923075E+00  0.45319929E-01
  0.91104077E+00  0.69826033E+00  0.59559320E-01
  0.11746799E+00  0.96676194E+00  0.19873068E+00
  0.43474285E-01  0.44011570E+00  0.11088960E+00
  0.13903589E+00  0.57295261E+00  0.17848573E+00
  0.17023812E+00  0.41989216E+00  0.60792458E+00
  0.18643411E+00  0.11069374E+00  0.43052312E+00
  0.19153616E+00  0.21202491E+00  0.60260435E+00
  0.53388823E+00  0.64035105E+00  0.65820249E-01
  0.32838766E-01  0.96568486E+00  0.47453008E+00
  0.71793942E-01  0.42528280E+00  0.46951975E+00
  0.49351454E+00  0.90242600E+00  0.68037915E+00
  0.63608145E+00  0.43443891E+00  0.22183102E+00
  0.40854597E+00  0.68135214E+00  0.55194513E+00
  0.91837178E+00  0.63529742E+00  0.85803331E+00
  0.65638715E+00  0.47710780E+00  0.78358314E+00
  0.00000000E+00  0.00000000E+00  0.00000000E+00
  0.00000000E+00  0.00000000E+00  0.00000000E+00
  0.00000000E+00  0.00000000E+00  0.00000000E+00
  0.00000000E+00  0.00000000E+00  0.00000000E+00
  0.00000000E+00  0.00000000E+00  0.00000000E+00
  0.00000000E+00  0.00000000E+00  0.00000000E+00
  0.00000000E+00  0.00000000E+00  0.00000000E+00
  0.00000000E+00  0.00000000E+00  0.00000000E+00
  0.00000000E+00  0.00000000E+00  0.00000000E+00
  0.00000000E+00  0.00000000E+00  0.00000000E+00
  0.00000000E+00  0.00000000E+00  0.00000000E+00
  0.00000000E+00  0.00000000E+00  0.00000000E+00
  0.00000000E+00  0.00000000E+00  0.00000000E+00
  0.00000000E+00  0.00000000E+00  0.00000000E+00
  0.00000000E+00  0.00000000E+00  0.00000000E+00
  0.00000000E+00  0.00000000E+00  0.00000000E+00
  0.00000000E+00  0.00000000E+00  0.00000000E+00
  0.00000000E+00  0.00000000E+00  0.00000000E+00
  0.00000000E+00  0.00000000E+00  0.00000000E+00
  0.00000000E+00  0.00000000E+00  0.00000000E+00
  0.00000000E+00  0.00000000E+00  0.00000000E+00
  0.00000000E+00  0.00000000E+00  0.00000000E+00
  0.00000000E+00  0.00000000E+00  0.00000000E+00
  0.00000000E+00  0.00000000E+00  0.00000000E+00
  0.00000000E+00  0.00000000E+00  0.00000000E+00
  0.00000000E+00  0.00000000E+00  0.00000000E+00
  0.00000000E+00  0.00000000E+00  0.00000000E+00
  0.00000000E+00  0.00000000E+00  0.00000000E+00
  0.00000000E+00  0.00000000E+00  0.00000000E+00
  0.00000000E+00  0.00000000E+00  0.00000000E+00
  0.00000000E+00  0.00000000E+00  0.00000000E+00
  0.00000000E+00  0.00000000E+00  0.00000000E+00
  0.00000000E+00  0.00000000E+00  0.00000000E+00
  0.00000000E+00  0.00000000E+00  0.00000000E+00
  0.00000000E+00  0.00000000E+00  0.00000000E+00
  0.00000000E+00  0.00000000E+00  0.00000000E+00
  0.00000000E+00  0.00000000E+00  0.00000000E+00
  0.00000000E+00  0.00000000E+00  0.00000000E+00
  0.00000000E+00  0.00000000E+00  0.00000000E+00
  0.00000000E+00  0.00000000E+00  0.00000000E+00
  0.00000000E+00  0.00000000E+00  0.00000000E+00
  0.00000000E+00  0.00000000E+00  0.00000000E+00
  0.00000000E+00  0.00000000E+00  0.00000000E+00
  0.00000000E+00  0.00000000E+00  0.00000000E+00
  0.00000000E+00  0.00000000E+00  0.00000000E+00
  0.00000000E+00  0.00000000E+00  0.00000000E+00
  0.00000000E+00  0.00000000E+00  0.00000000E+00
  0.00000000E+00  0.00000000E+00  0.00000000E+00
  0.00000000E+00  0.00000000E+00  0.00000000E+00
  0.00000000E+00  0.00000000E+00  0.00000000E+00
  0.00000000E+00  0.00000000E+00  0.00000000E+00
  0.00000000E+00  0.00000000E+00  0.00000000E+00
  0.00000000E+00  0.00000000E+00  0.00000000E+00
  0.00000000E+00  0.00000000E+00  0.00000000E+00
  0.00000000E+00  0.00000000E+00  0.00000000E+00
  0.00000000E+00  0.00000000E+00  0.00000000E+00
  0.00000000E+00  0.00000000E+00  0.00000000E+00
  0.00000000E+00  0.00000000E+00  0.00000000E+00
  0.00000000E+00  0.00000000E+00  0.00000000E+00
  0.00000000E+00  0.00000000E+00  0.00000000E+00
  0.00000000E+00  0.00000000E+00  0.00000000E+00
  0.00000000E+00  0.00000000E+00  0.00000000E+00
  0.00000000E+00  0.00000000E+00  0.00000000E+00
  0.00000000E+00  0.00000000E+00  0.00000000E+00
  0.00000000E+00  0.00000000E+00  0.00000000E+00
  0.00000000E+00  0.00000000E+00  0.00000000E+00
  0.00000000E+00  0.00000000E+00  0.00000000E+00
  0.00000000E+00  0.00000000E+00  0.00000000E+00
  0.00000000E+00  0.00000000E+00  0.00000000E+00
  0.00000000E+00  0.00000000E+00  0.00000000E+00
  0.00000000E+00  0.00000000E+00  0.00000000E+00
  0.00000000E+00  0.00000000E+00  0.00000000E+00
  0.00000000E+00  0.00000000E+00  0.00000000E+00
  0.00000000E+00  0.00000000E+00  0.00000000E+00
  0.00000000E+00  0.00000000E+00  0.00000000E+00
  0.00000000E+00  0.00000000E+00  0.00000000E+00
  0.00000000E+00  0.00000000E+00  0.00000000E+00
  0.00000000E+00  0.00000000E+00  0.00000000E+00
  0.00000000E+00  0.00000000E+00  0.00000000E+00
  0.00000000E+00  0.00000000E+00  0.00000000E+00
  0.00000000E+00  0.00000000E+00  0.00000000E+00
  0.00000000E+00  0.00000000E+00  0.00000000E+00
  0.00000000E+00  0.00000000E+00  0.00000000E+00
  0.00000000E+00  0.00000000E+00  0.00000000E+00
  0.00000000E+00  0.00000000E+00  0.00000000E+00
  0.00000000E+00  0.00000000E+00  0.00000000E+00
  0.00000000E+00  0.00000000E+00  0.00000000E+00
  0.00000000E+00  0.00000000E+00  0.00000000E+00
  0.00000000E+00  0.00000000E+00  0.00000000E+00
  0.00000000E+00  0.00000000E+00  0.00000000E+00
  0.00000000E+00  0.00000000E+00  0.00000000E+00
  0.00000000E+00  0.00000000E+00  0.00000000E+00
  0.00000000E+00  0.00000000E+00  0.00000000E+00
  0.00000000E+00  0.00000000E+00  0.00000000E+00
  0.00000000E+00  0.00000000E+00  0.00000000E+00
  0.00000000E+00  0.00000000E+00  0.00000000E+00
