title
1.
4.910364000 1.636788000 -4.910364000
4.910364000 8.183940000 4.910364000
9.820728000 -3.273576000 6.547152000
24 24
Cartesian
19.641456000 6.547152000 6.547152000    Ir
4.910364000 4.910364000 1.636788000    Ir
6.547152000 6.547152000 3.273576000    Ir
6.547152000 3.273576000 3.273576000    Ir
8.183940000 4.910364000 4.910364000    Ir
9.820728000 6.547152000 6.547152000    Ir
11.457516000 4.910364000 8.183940000    Ir
11.457516000 1.636788000 8.183940000    Ir
16.367880000 3.273576000 6.547152000    Ir
8.183940000 8.183940000 1.636788000    Ir
8.183940000 1.636788000 1.636788000    Ir
11.457516000 4.910364000 4.910364000    Ir
9.820728000 0.000000000 3.273576000    Ir
11.457516000 1.636788000 4.910364000    Ir
13.094304000 3.273576000 6.547152000    Ir
14.731092000 4.910364000 8.183940000    Ir
6.547152000 3.273576000 -3.273576000    Ir
11.457516000 8.183940000 1.636788000    Ir
11.457516000 4.910364000 1.636788000    Ir
13.094304000 6.547152000 3.273576000    Ir
9.820728000 0.000000000 0.000000000    Ir
13.094304000 3.273576000 3.273576000    Ir
14.731092000 4.910364000 4.910364000    Ir
14.731092000 1.636788000 4.910364000    Ir
13.094304000 0.000000000 6.547152000    Ru
3.273576000 0.000000000 0.000000000    Ru
4.910364000 1.636788000 1.636788000    Ru
6.547152000 0.000000000 3.273576000    Ru
8.183940000 1.636788000 4.910364000    Ru
9.820728000 3.273576000 6.547152000    Ru
8.183940000 -1.636788000 4.910364000    Ru
9.820728000 0.000000000 6.547152000    Ru
13.094304000 3.273576000 9.820728000    Ru
4.910364000 1.636788000 -1.636788000    Ru
6.547152000 3.273576000 0.000000000    Ru
8.183940000 4.910364000 1.636788000    Ru
9.820728000 6.547152000 3.273576000    Ru
6.547152000 0.000000000 0.000000000    Ru
9.820728000 3.273576000 3.273576000    Ru
13.094304000 6.547152000 6.547152000    Ru
11.457516000 -1.636788000 4.910364000    Ru
8.183940000 4.910364000 -1.636788000    Ru
9.820728000 6.547152000 0.000000000    Ru
8.183940000 1.636788000 -1.636788000    Ru
9.820728000 3.273576000 0.000000000    Ru
11.457516000 1.636788000 1.636788000    Ru
16.367880000 6.547152000 6.547152000    Ru
13.094304000 0.000000000 3.273576000    Ru
