title                                   
   1.00000000000000     
     5.4671134627955897    2.1242447884717364   -4.3882010333598442
     5.3316092820679017    7.9413713273316704    5.1741685916047819
     9.6999448811800111   -3.2333149603927183    6.4666299207825650
   Ir   Ru
    24    24
Direct
  0.8102629758356176  0.3335339749485390  0.3965641220904979
  0.2238765186224717  0.6885482671115466  0.0772969763255966
  0.4269607064801748  0.8806092284686444  0.0521851044871636
  0.4968379157431660  0.0399392805220580  0.1435049276442464
  0.7727984007392800  0.6102765190692909  0.3906986529029034
  0.1881246551632892  0.2080617897522361  0.4965016746361986
  0.5755861069781156  0.3615192009284645  0.5484667402472003
  0.7578894080892634  0.1089371053310839  0.7086088782841649
  0.7115542995787547  0.6613512040466379  0.9027672039532385
  0.8798509820816327  0.0704217051415301  0.1521508167324724
  0.3520291245878805  0.2002103114831315  0.2487234659748878
  0.9707063517782554  0.8106780912729025  0.3053082017496855
  0.1854720692668822  0.0447944617520115  0.7177510452586667
  0.5793863335893448  0.7204886731607846  0.6980392792039881
  0.9782821272892065  0.8491590005909432  0.8156535891598289
  0.9117481158267386  0.3301440891480214  0.6061368171225279
  0.4200277894270988  0.3877201463490983  0.7455260333101432
  0.7421009544725734  0.4698247956523844  0.7281573860906390
  0.3647325955687263  0.6654286818162793  0.2633282910102639
  0.3912317483897572  0.0862645704891849  0.8495007532796918
  0.7578049259017323  0.1697752164596962  0.3015859391082336
  0.6277001773683802  0.9460855142270397  0.3765862159627220
  0.5651820224042159  0.0525339089001782  0.5669074266403302
  0.2408185176499519  0.6684562061542340  0.7308565234251329
  0.7376487984932364  0.2113535792849663  0.9275094202133918
  0.9712721261262590  0.3435918621767916  0.1669864355648900
  0.7267097335642363  0.5523604295893325  0.1939701644799519
  0.8809669729650116  0.6855991989297513  0.5429365520743863
  0.8758739936524682  0.8553451534990261  0.6410448717168830
  0.0762824071095343  0.0629554452293679  0.3711270436421906
  0.1977803465440213  0.9678417020083643  0.2269259120411334
  0.4811881490118682  0.4917752791643097  0.9249079714443027
  0.4311093019008198  0.8012436150008557  0.8664572707225049
  0.0202368165535361  0.5728476737221377  0.0250097217727184
  0.4502427869624147  0.3163386068784757  0.3890754651211724
  0.8574278883528687  0.7770489555653454  0.0841644377027915
  0.1024201929247965  0.4720466496736485  0.3075528964961501
  0.0609520840929056  0.2433395412140816  0.8493780829391090
  0.1676223229266019  0.7827548122258829  0.4819858253346985
  0.2269368615443592  0.2895360368610362  0.0023732829802584
  0.8362969425531933  0.4150360480901897  0.9885685977095727
  0.6923791873676954  0.0031434959011496  0.9398940229292443
  0.0783661551158900  0.9496549160275198  0.9808562756333037
  0.4264382095913702  0.4064164325151710  0.1622504145444166
  0.4722852063339552  0.6031666553733420  0.5502933777332270
  0.2844356742663716  0.9393332777513065  0.5549091212150985
  0.2239466451257220  0.4936513869213648  0.4920518322461733
  0.0600029783948058  0.5201689964290226  0.7921795088369252
Lattice velocities
  0.26744953E-02  0.53992067E-03  0.15994869E-02
  0.82749012E-03  0.90398264E-03 -0.76453739E-03
  0.27722503E-02  0.23545532E-03 -0.16905112E-02
 
 -0.16077928E-02 -0.18120891E-02  0.46565401E-03
 -0.13075537E-02  0.57604521E-02  0.72610799E-02
  0.76721872E-02 -0.13818841E-02  0.44281088E-02
 -0.39891041E-02 -0.40545501E-03 -0.17467204E-02
 -0.18606638E-03 -0.18474252E-02  0.14350166E-03
 -0.45233058E-02 -0.11242146E-03  0.70032723E-02
 -0.27124281E-02  0.60998785E-02 -0.37852233E-02
  0.32866582E-02 -0.16879692E-02  0.20548036E-02
 -0.33530999E-02  0.25980790E-02  0.78651725E-03
 -0.48295184E-02 -0.45521839E-02 -0.78084072E-03
  0.13118004E-03 -0.13796158E-02  0.42806103E-02
 -0.24589851E-02 -0.79713179E-03 -0.17623373E-02
 -0.22902804E-03 -0.26821708E-02  0.28193200E-02
 -0.53701503E-03 -0.14252924E-03  0.67612670E-03
  0.25494503E-02  0.68675176E-02  0.40258818E-02
 -0.36717897E-02 -0.18646251E-02 -0.27835934E-02
 -0.21690892E-02 -0.24136893E-02 -0.12511679E-03
 -0.11764541E-02  0.25228993E-02  0.45955374E-02
  0.32542437E-03 -0.54897636E-02  0.56595542E-02
 -0.54756986E-03  0.63636761E-02 -0.49750026E-02
 -0.94536255E-03 -0.96201547E-03  0.20593024E-02
  0.54079887E-02 -0.38311289E-03  0.22179306E-02
  0.56118278E-02  0.49955201E-02 -0.31740706E-02
 -0.26790045E-03  0.19312891E-02 -0.29012218E-02
  0.62574301E-02  0.29353150E-02  0.21017422E-02
 -0.10728286E-01  0.10064716E-02 -0.22297652E-02
  0.26780817E-03  0.11089995E-01  0.30374816E-02
  0.85836165E-02  0.45798122E-02  0.55016485E-02
  0.85172404E-03 -0.87986475E-02  0.37132752E-02
 -0.17160852E-02 -0.52710717E-02 -0.89220809E-02
 -0.25149518E-02  0.57001192E-02  0.71501788E-02
 -0.11498372E-01 -0.32080819E-02 -0.21600976E-02
 -0.21957031E-03  0.17980472E-02 -0.58090881E-02
 -0.65126787E-02  0.84695096E-03  0.83854163E-03
 -0.59410380E-02  0.31149932E-02 -0.35921647E-02
  0.10757563E-02  0.13301041E-02 -0.10653411E-03
 -0.34116944E-02  0.32384325E-02  0.17516930E-02
  0.43765162E-05 -0.37702402E-02 -0.39038947E-02
  0.14870918E-02  0.12509446E-01  0.14986255E-02
 -0.63162563E-02 -0.21438556E-02 -0.53771854E-02
 -0.86831730E-02 -0.82143919E-02  0.44791815E-02
  0.22417776E-02 -0.36997792E-02  0.47907583E-02
  0.15591938E-02 -0.17925830E-02 -0.74625681E-03
 -0.21906160E-02 -0.48633555E-02  0.34615848E-02
  0.96400293E-02  0.28912626E-02 -0.26241633E-02
  0.45759511E-03 -0.11943319E-02 -0.57655348E-02
 -0.54411630E-02  0.71191899E-03  0.44151617E-02
  0.48449986E-03  0.51811061E-02 -0.44130704E-02
 
           1
   1.50000000000000     
  0.10000000E+01  0.00000000E+00  0.00000000E+00  0.00000000E+00
  0.81026298E+00  0.33353397E+00  0.39656412E+00
  0.22387652E+00  0.68854827E+00  0.77296976E-01
  0.42696071E+00  0.88060923E+00  0.52185104E-01
  0.49683792E+00  0.39939281E-01  0.14350493E+00
  0.77279840E+00  0.61027652E+00  0.39069865E+00
  0.18812466E+00  0.20806179E+00  0.49650167E+00
  0.57558611E+00  0.36151920E+00  0.54846674E+00
  0.75788941E+00  0.10893711E+00  0.70860888E+00
  0.71155430E+00  0.66135120E+00  0.90276720E+00
  0.87985098E+00  0.70421705E-01  0.15215082E+00
  0.35202912E+00  0.20021031E+00  0.24872347E+00
  0.97070635E+00  0.81067809E+00  0.30530820E+00
  0.18547207E+00  0.44794462E-01  0.71775105E+00
  0.57938633E+00  0.72048867E+00  0.69803928E+00
  0.97828213E+00  0.84915900E+00  0.81565359E+00
  0.91174812E+00  0.33014409E+00  0.60613682E+00
  0.42002779E+00  0.38772015E+00  0.74552603E+00
  0.74210095E+00  0.46982480E+00  0.72815739E+00
  0.36473260E+00  0.66542868E+00  0.26332829E+00
  0.39123175E+00  0.86264570E-01  0.84950075E+00
  0.75780493E+00  0.16977522E+00  0.30158594E+00
  0.62770018E+00  0.94608551E+00  0.37658622E+00
  0.56518202E+00  0.52533909E-01  0.56690743E+00
  0.24081852E+00  0.66845621E+00  0.73085652E+00
  0.73764880E+00  0.21135358E+00  0.92750942E+00
  0.97127213E+00  0.34359186E+00  0.16698644E+00
  0.72670973E+00  0.55236043E+00  0.19397016E+00
  0.88096697E+00  0.68559920E+00  0.54293655E+00
  0.87587399E+00  0.85534515E+00  0.64104487E+00
  0.76282407E-01  0.62955445E-01  0.37112704E+00
  0.19778035E+00  0.96784170E+00  0.22692591E+00
  0.48118815E+00  0.49177528E+00  0.92490797E+00
  0.43110930E+00  0.80124362E+00  0.86645727E+00
  0.20236817E-01  0.57284767E+00  0.25009722E-01
  0.45024279E+00  0.31633861E+00  0.38907547E+00
  0.85742789E+00  0.77704896E+00  0.84164438E-01
  0.10242019E+00  0.47204665E+00  0.30755290E+00
  0.60952084E-01  0.24333954E+00  0.84937808E+00
  0.16762232E+00  0.78275481E+00  0.48198583E+00
  0.22693686E+00  0.28953604E+00  0.23732830E-02
  0.83629694E+00  0.41503605E+00  0.98856860E+00
  0.69237919E+00  0.31434959E-02  0.93989402E+00
  0.78366155E-01  0.94965492E+00  0.98085628E+00
  0.42643821E+00  0.40641643E+00  0.16225041E+00
  0.47228521E+00  0.60316666E+00  0.55029338E+00
  0.28443567E+00  0.93933328E+00  0.55490912E+00
  0.22394665E+00  0.49365139E+00  0.49205183E+00
  0.60002978E-01  0.52016900E+00  0.79217951E+00
  0.00000000E+00  0.00000000E+00  0.00000000E+00
  0.00000000E+00  0.00000000E+00  0.00000000E+00
  0.00000000E+00  0.00000000E+00  0.00000000E+00
  0.00000000E+00  0.00000000E+00  0.00000000E+00
  0.00000000E+00  0.00000000E+00  0.00000000E+00
  0.00000000E+00  0.00000000E+00  0.00000000E+00
  0.00000000E+00  0.00000000E+00  0.00000000E+00
  0.00000000E+00  0.00000000E+00  0.00000000E+00
  0.00000000E+00  0.00000000E+00  0.00000000E+00
  0.00000000E+00  0.00000000E+00  0.00000000E+00
  0.00000000E+00  0.00000000E+00  0.00000000E+00
  0.00000000E+00  0.00000000E+00  0.00000000E+00
  0.00000000E+00  0.00000000E+00  0.00000000E+00
  0.00000000E+00  0.00000000E+00  0.00000000E+00
  0.00000000E+00  0.00000000E+00  0.00000000E+00
  0.00000000E+00  0.00000000E+00  0.00000000E+00
  0.00000000E+00  0.00000000E+00  0.00000000E+00
  0.00000000E+00  0.00000000E+00  0.00000000E+00
  0.00000000E+00  0.00000000E+00  0.00000000E+00
  0.00000000E+00  0.00000000E+00  0.00000000E+00
  0.00000000E+00  0.00000000E+00  0.00000000E+00
  0.00000000E+00  0.00000000E+00  0.00000000E+00
  0.00000000E+00  0.00000000E+00  0.00000000E+00
  0.00000000E+00  0.00000000E+00  0.00000000E+00
  0.00000000E+00  0.00000000E+00  0.00000000E+00
  0.00000000E+00  0.00000000E+00  0.00000000E+00
  0.00000000E+00  0.00000000E+00  0.00000000E+00
  0.00000000E+00  0.00000000E+00  0.00000000E+00
  0.00000000E+00  0.00000000E+00  0.00000000E+00
  0.00000000E+00  0.00000000E+00  0.00000000E+00
  0.00000000E+00  0.00000000E+00  0.00000000E+00
  0.00000000E+00  0.00000000E+00  0.00000000E+00
  0.00000000E+00  0.00000000E+00  0.00000000E+00
  0.00000000E+00  0.00000000E+00  0.00000000E+00
  0.00000000E+00  0.00000000E+00  0.00000000E+00
  0.00000000E+00  0.00000000E+00  0.00000000E+00
  0.00000000E+00  0.00000000E+00  0.00000000E+00
  0.00000000E+00  0.00000000E+00  0.00000000E+00
  0.00000000E+00  0.00000000E+00  0.00000000E+00
  0.00000000E+00  0.00000000E+00  0.00000000E+00
  0.00000000E+00  0.00000000E+00  0.00000000E+00
  0.00000000E+00  0.00000000E+00  0.00000000E+00
  0.00000000E+00  0.00000000E+00  0.00000000E+00
  0.00000000E+00  0.00000000E+00  0.00000000E+00
  0.00000000E+00  0.00000000E+00  0.00000000E+00
  0.00000000E+00  0.00000000E+00  0.00000000E+00
  0.00000000E+00  0.00000000E+00  0.00000000E+00
  0.00000000E+00  0.00000000E+00  0.00000000E+00
  0.00000000E+00  0.00000000E+00  0.00000000E+00
  0.00000000E+00  0.00000000E+00  0.00000000E+00
  0.00000000E+00  0.00000000E+00  0.00000000E+00
  0.00000000E+00  0.00000000E+00  0.00000000E+00
  0.00000000E+00  0.00000000E+00  0.00000000E+00
  0.00000000E+00  0.00000000E+00  0.00000000E+00
  0.00000000E+00  0.00000000E+00  0.00000000E+00
  0.00000000E+00  0.00000000E+00  0.00000000E+00
  0.00000000E+00  0.00000000E+00  0.00000000E+00
  0.00000000E+00  0.00000000E+00  0.00000000E+00
  0.00000000E+00  0.00000000E+00  0.00000000E+00
  0.00000000E+00  0.00000000E+00  0.00000000E+00
  0.00000000E+00  0.00000000E+00  0.00000000E+00
  0.00000000E+00  0.00000000E+00  0.00000000E+00
  0.00000000E+00  0.00000000E+00  0.00000000E+00
  0.00000000E+00  0.00000000E+00  0.00000000E+00
  0.00000000E+00  0.00000000E+00  0.00000000E+00
  0.00000000E+00  0.00000000E+00  0.00000000E+00
  0.00000000E+00  0.00000000E+00  0.00000000E+00
  0.00000000E+00  0.00000000E+00  0.00000000E+00
  0.00000000E+00  0.00000000E+00  0.00000000E+00
  0.00000000E+00  0.00000000E+00  0.00000000E+00
  0.00000000E+00  0.00000000E+00  0.00000000E+00
  0.00000000E+00  0.00000000E+00  0.00000000E+00
  0.00000000E+00  0.00000000E+00  0.00000000E+00
  0.00000000E+00  0.00000000E+00  0.00000000E+00
  0.00000000E+00  0.00000000E+00  0.00000000E+00
  0.00000000E+00  0.00000000E+00  0.00000000E+00
  0.00000000E+00  0.00000000E+00  0.00000000E+00
  0.00000000E+00  0.00000000E+00  0.00000000E+00
  0.00000000E+00  0.00000000E+00  0.00000000E+00
  0.00000000E+00  0.00000000E+00  0.00000000E+00
  0.00000000E+00  0.00000000E+00  0.00000000E+00
  0.00000000E+00  0.00000000E+00  0.00000000E+00
  0.00000000E+00  0.00000000E+00  0.00000000E+00
  0.00000000E+00  0.00000000E+00  0.00000000E+00
  0.00000000E+00  0.00000000E+00  0.00000000E+00
  0.00000000E+00  0.00000000E+00  0.00000000E+00
  0.00000000E+00  0.00000000E+00  0.00000000E+00
  0.00000000E+00  0.00000000E+00  0.00000000E+00
  0.00000000E+00  0.00000000E+00  0.00000000E+00
  0.00000000E+00  0.00000000E+00  0.00000000E+00
  0.00000000E+00  0.00000000E+00  0.00000000E+00
  0.00000000E+00  0.00000000E+00  0.00000000E+00
  0.00000000E+00  0.00000000E+00  0.00000000E+00
  0.00000000E+00  0.00000000E+00  0.00000000E+00
  0.00000000E+00  0.00000000E+00  0.00000000E+00
  0.00000000E+00  0.00000000E+00  0.00000000E+00
