title                                   
   1.00000000000000     
    -7.6695537460235954   -3.8352073035481782    3.8364072669648408
     7.6721092949401406   -3.8381538971220124    3.8385730161822140
    -0.0001952892367982    3.8356943945318847    3.8365034970089100
   Ir   Ru
    12    20
Direct
  0.4997034768537051  0.4984368475517713  0.4994193562085714
  0.2511687179834629  0.7505349063395544  0.4981616725656979
 -0.0003197654638626  0.4984091444611609 -0.0006153722258110
  0.7492395566136083  0.7505057962968961 -0.0005439807626290
 -0.0004754181695527  0.7503776885044244  0.7495016948138797
  0.2494467489341846  0.4980007296566700  0.7508192491799701
  0.0008073864200828  0.2496578020252105  0.2507084784251410
  0.7486275932643635  0.4977250592904776  0.2507234751457588
  0.0007896245273535  0.7515739349017679  0.2506703452422718
  0.7492364603239726  0.0007728391972234  0.2507706256737738
  0.5008059080291881  0.7515890720180718  0.7506728396696104
  0.2512131226315659  0.0024594654131693  0.7509315181932227
 -0.0000272047689292  0.0010562032630738  0.5009681196816319
  0.7491516383082563  0.2495983455976995  0.5029474092133096
  0.4999812097368021  0.0009910824063579  0.0008842829442728
  0.2508012370516484  0.2496820592284922  0.0010866364231971
  0.7502887095656495  0.0013079347334606  0.7489995021603636
  0.5006254797802939  0.2494457547417765  0.7511098322866614
  0.4997133250485769  0.7504689640064214  0.2493354281820473
  0.2511236375242605  0.0014001483972915  0.2490434817754661
  0.4993245563828394  0.2490491971508057  0.2485918519939651
  0.2506151498621269  0.4996628849364163  0.2494820105205627
 -0.0006794263524688  0.2489290602149178  0.7488568102648246
  0.7491269355670928  0.4984149281013824  0.7493629967137023
  0.0009180861664917  0.0019630425732436 -0.0010064037761737
  0.7481364292929947  0.2489988589320245 -0.0036884995419122
  0.4990257679865074  0.4980993452301664  0.0010387360608632
  0.2519311797318426  0.7509738560998750  0.0024817800617203
  0.5008988854992601  0.0018865308539726  0.4991253433347962
  0.2499551256169912  0.2490664173422768  0.4985088996034714
 -0.0010129828173293  0.4980279793116217  0.5010626594972006
  0.7498588488690202  0.7509341212223259  0.5005892204705725
 
  0.00000000E+00  0.00000000E+00  0.00000000E+00
  0.00000000E+00  0.00000000E+00  0.00000000E+00
  0.00000000E+00  0.00000000E+00  0.00000000E+00
  0.00000000E+00  0.00000000E+00  0.00000000E+00
  0.00000000E+00  0.00000000E+00  0.00000000E+00
  0.00000000E+00  0.00000000E+00  0.00000000E+00
  0.00000000E+00  0.00000000E+00  0.00000000E+00
  0.00000000E+00  0.00000000E+00  0.00000000E+00
  0.00000000E+00  0.00000000E+00  0.00000000E+00
  0.00000000E+00  0.00000000E+00  0.00000000E+00
  0.00000000E+00  0.00000000E+00  0.00000000E+00
  0.00000000E+00  0.00000000E+00  0.00000000E+00
  0.00000000E+00  0.00000000E+00  0.00000000E+00
  0.00000000E+00  0.00000000E+00  0.00000000E+00
  0.00000000E+00  0.00000000E+00  0.00000000E+00
  0.00000000E+00  0.00000000E+00  0.00000000E+00
  0.00000000E+00  0.00000000E+00  0.00000000E+00
  0.00000000E+00  0.00000000E+00  0.00000000E+00
  0.00000000E+00  0.00000000E+00  0.00000000E+00
  0.00000000E+00  0.00000000E+00  0.00000000E+00
  0.00000000E+00  0.00000000E+00  0.00000000E+00
  0.00000000E+00  0.00000000E+00  0.00000000E+00
  0.00000000E+00  0.00000000E+00  0.00000000E+00
  0.00000000E+00  0.00000000E+00  0.00000000E+00
  0.00000000E+00  0.00000000E+00  0.00000000E+00
  0.00000000E+00  0.00000000E+00  0.00000000E+00
  0.00000000E+00  0.00000000E+00  0.00000000E+00
  0.00000000E+00  0.00000000E+00  0.00000000E+00
  0.00000000E+00  0.00000000E+00  0.00000000E+00
  0.00000000E+00  0.00000000E+00  0.00000000E+00
  0.00000000E+00  0.00000000E+00  0.00000000E+00
  0.00000000E+00  0.00000000E+00  0.00000000E+00
