title
1.
-8.018590000 -4.009295000 4.009295000
8.018590000 -4.009295000 4.009295000
0.000000000 4.009295000 4.009295000
12 20
Cartesian
0.000000000 -2.004647500 6.013942500    Ir
4.009295000 -2.004647500 6.013942500    Ir
-4.009295000 -2.004647500 10.023237500    Ir
0.000000000 -2.004647500 10.023237500    Ir
-2.004647500 -4.009295000 10.023237500    Ir
2.004647500 0.000000000 6.013942500    Ir
-6.013942500 -4.009295000 6.013942500    Ir
-2.004647500 -4.009295000 6.013942500    Ir
-2.004647500 -6.013942500 8.018590000    Ir
2.004647500 -6.013942500 8.018590000    Ir
2.004647500 -2.004647500 8.018590000    Ir
6.013942500 -2.004647500 8.018590000    Ir
0.000000000 -6.013942500 10.023237500    Ru
-4.009295000 -2.004647500 6.013942500    Ru
4.009295000 -2.004647500 10.023237500    Ru
0.000000000 2.004647500 6.013942500    Ru
2.004647500 -4.009295000 10.023237500    Ru
-2.004647500 0.000000000 6.013942500    Ru
2.004647500 -4.009295000 6.013942500    Ru
6.013942500 -4.009295000 6.013942500    Ru
-2.004647500 -2.004647500 4.009295000    Ru
2.004647500 -2.004647500 4.009295000    Ru
-6.013942500 -2.004647500 8.018590000    Ru
-2.004647500 -2.004647500 8.018590000    Ru
0.000000000 -4.009295000 12.027885000    Ru
-4.009295000 0.000000000 8.018590000    Ru
0.000000000 0.000000000 8.018590000    Ru
4.009295000 0.000000000 8.018590000    Ru
4.009295000 -4.009295000 8.018590000    Ru
0.000000000 0.000000000 4.009295000    Ru
-4.009295000 -4.009295000 8.018590000    Ru
0.000000000 -4.009295000 8.018590000    Ru
