title                                   
   1.00000000000000     
     8.1849071280674242   -4.7255586351939654   -4.3128032273400345
     2.7280597424063937    4.7251394979824610    0.0000000000000000
     8.1849071280674242   -4.7255586351939654    4.3128032273400345
   Ir   Ru
     4    28
Direct
  0.5422848897791308  0.0000000000129694  0.7922848897791308
  0.7910393049828476  0.4999999999467462  0.0410393049828477
  0.2080184487028894  0.5000000000204339  0.9586928543286490
  0.7086928543286490  0.5000000000204339  0.4580184487028895
  0.2916159386351328  0.4999999999761578  0.5416159386351330
  0.0416339539614667  0.9999999999838616  0.2916339539614666
  0.4574283451489761  0.0000000000204026  0.2093328085999996
  0.9593328085999997  0.0000000000204026  0.7074283451489760
  0.4161833559069480  0.7509421047840285  0.6661833559069479
  0.6666871626419091  0.2499691286319733  0.9166871626419091
  0.9165443255977880  0.7520494600264170  0.1665443255977877
  0.1666731303585332  0.2498541029486410  0.4166731303585333
  0.5422425638496075  0.4999999999893270  0.7922425638496075
  0.7914323606362447  0.9999999999761383  0.0414323606362447
  0.0422795520186045  0.4999999999981594  0.2922795520186046
  0.2915317737731682  0.9999999999773634  0.5415317737731683
  0.4161833559040998  0.2490578951388679  0.6661833559040998
  0.6666871626435493  0.7500308713283621  0.9166871626435493
  0.9165443255882835  0.2479505399504878  0.1665443255882834
  0.1666731303581657  0.7501458970089278  0.4166731303581657
  0.0840459934606669  0.2488529995316375  0.8322625933894713
  0.3325786362196494  0.7498624365770932  0.0849516071014253
  0.5822625933894713  0.2488529995316375  0.3340459934606670
  0.8349516071014255  0.7498624365770932  0.5825786362196493
  0.0840459934647960  0.7511470005017111  0.8322625933936003
  0.3325786362205064  0.2501375634783845  0.0849516071022823
  0.5822625933936003  0.7511470005017111  0.3340459934647962
  0.8349516071022824  0.2501375634783845  0.5825786362205065
  0.9595766358239487  0.5000000000236710  0.7069029068519399
  0.2073982735946846  0.0000000000074026  0.9587357799610359
  0.4569029068519400  0.5000000000236710  0.2095766358239485
  0.7087357799610359  0.0000000000074026  0.4573982735946845
 
  0.00000000E+00  0.00000000E+00  0.00000000E+00
  0.00000000E+00  0.00000000E+00  0.00000000E+00
  0.00000000E+00  0.00000000E+00  0.00000000E+00
  0.00000000E+00  0.00000000E+00  0.00000000E+00
  0.00000000E+00  0.00000000E+00  0.00000000E+00
  0.00000000E+00  0.00000000E+00  0.00000000E+00
  0.00000000E+00  0.00000000E+00  0.00000000E+00
  0.00000000E+00  0.00000000E+00  0.00000000E+00
  0.00000000E+00  0.00000000E+00  0.00000000E+00
  0.00000000E+00  0.00000000E+00  0.00000000E+00
  0.00000000E+00  0.00000000E+00  0.00000000E+00
  0.00000000E+00  0.00000000E+00  0.00000000E+00
  0.00000000E+00  0.00000000E+00  0.00000000E+00
  0.00000000E+00  0.00000000E+00  0.00000000E+00
  0.00000000E+00  0.00000000E+00  0.00000000E+00
  0.00000000E+00  0.00000000E+00  0.00000000E+00
  0.00000000E+00  0.00000000E+00  0.00000000E+00
  0.00000000E+00  0.00000000E+00  0.00000000E+00
  0.00000000E+00  0.00000000E+00  0.00000000E+00
  0.00000000E+00  0.00000000E+00  0.00000000E+00
  0.00000000E+00  0.00000000E+00  0.00000000E+00
  0.00000000E+00  0.00000000E+00  0.00000000E+00
  0.00000000E+00  0.00000000E+00  0.00000000E+00
  0.00000000E+00  0.00000000E+00  0.00000000E+00
  0.00000000E+00  0.00000000E+00  0.00000000E+00
  0.00000000E+00  0.00000000E+00  0.00000000E+00
  0.00000000E+00  0.00000000E+00  0.00000000E+00
  0.00000000E+00  0.00000000E+00  0.00000000E+00
  0.00000000E+00  0.00000000E+00  0.00000000E+00
  0.00000000E+00  0.00000000E+00  0.00000000E+00
  0.00000000E+00  0.00000000E+00  0.00000000E+00
  0.00000000E+00  0.00000000E+00  0.00000000E+00
