title
1.
8.464859000 -4.887189000 -4.512464000
2.821619000 4.887189000 0.000000000
8.464859000 -4.887189000 4.512464000
4 28
Cartesian
14.107815505 -1.628900094 1.128116000    Ir
8.464576505 -1.628900094 -3.384348000    Ir
11.286760495 -3.258288906 3.384348000    Ir
11.286760495 -3.258288906 -1.128116000    Ir
8.464576505 -1.628900094 1.128116000    Ru
5.642956505 3.258288906 1.128116000    Ru
8.465140495 1.628900094 -1.128116000    Ru
16.929999495 -3.258288906 -1.128116000    Ru
11.286196005 -1.628900094 1.128116000    Ru
14.107816005 -6.516089094 1.128116000    Ru
11.286196005 -1.628900094 -3.384348000    Ru
5.642957005 -1.628900094 1.128116000    Ru
12.697006005 -4.072494594 1.128116000    Ru
9.875386005 0.814694406 -3.384348000    Ru
4.232147005 0.814694406 1.128116000    Ru
9.875386005 0.814694406 1.128116000    Ru
9.875386505 -4.072494594 1.128116000    Ru
15.518625505 -4.072494594 1.128116000    Ru
9.875386505 -4.072494594 -3.384348000    Ru
7.053766505 0.814694406 1.128116000    Ru
8.465140995 -3.258288906 3.384348000    Ru
5.643520995 1.628900094 -1.128116000    Ru
8.465140995 -3.258288906 -1.128116000    Ru
14.108379995 -3.258288906 -1.128116000    Ru
9.875950495 -0.814694406 3.384348000    Ru
4.232711495 -0.814694406 -1.128116000    Ru
9.875950495 -0.814694406 -1.128116000    Ru
12.697570495 -5.701883406 -1.128116000    Ru
15.519189995 -5.701883406 -1.128116000    Ru
12.697569995 -0.814694406 3.384348000    Ru
7.054330995 -0.814694406 -1.128116000    Ru
12.697569995 -0.814694406 -1.128116000    Ru
