title                                   
   1.00000000000000     
     0.0003041213286401   -3.8251515488769701   -7.6505320034853801
    -0.0000871013955267   -7.6516807497995352    0.0006887768242281
   -15.3090102454903914   -0.0001737423333106    0.0006953110860708
   Ir   Ru
    12    52
Direct
  0.7495518505615930  0.8758727186702036  0.2491922831877955
  0.2497287244709357  0.6247953042480511  0.7510949086739735
  0.7496507215664440  0.6247475925217553  0.6254321282928639
  0.7495210974273430  0.6257436821716709  0.3752601420937816
  0.2511102056382258  0.3728867287982955  0.6247304051790928
  0.2504727591999090  0.3749644894272873  0.3749377796829531
  0.2499201054599387  0.3752870240205244  0.1249363286741364
  0.2501812506335217  0.8765072209112945  0.6244305564999258
  0.5007761557996032  0.4995434498064056  0.8754611546838158
  0.4989979411331660  0.5003620835594612  0.3748191667247907
  0.0011342503407502  0.2479571925779312  0.3749955883975746
 -0.0007781002367610  0.7512300894693785  0.6247936024210820
  0.7478830725390910  0.8766909512763869  0.7511217574235038
  0.7492900302474900  0.8770100884436116  0.4999631859702924
  0.7498496415674699  0.8745845602665118 -0.0002957993062517
  0.7521348276653105  0.3731230569167028  0.7502068742128009
  0.7500507889106751  0.3733105246706252  0.5005396404150994
  0.7504023596966762  0.3742752159442052  0.2485320103178092
  0.7505527266488768  0.3752189085556033  0.0003844336865887
  0.2491575047970779  0.6261792988350458  0.4994793818510152
  0.2495398365144187  0.6268592937811746  0.2491872462488975
  0.2482905790260328  0.6265026803363400  0.0002459058940085
  0.2502899881222729  0.1253016649249256  0.7510329419144391
  0.2519427740542759  0.1234768097386686  0.5001507856334325
  0.2504348570837341  0.1231971950630080  0.2492384750109812
  0.2507066297469870  0.1241274922332492 -0.0005684465516544
  0.7508841090519779  0.6255010973162543  0.8750008872602618
  0.7491643299091290  0.6246529667351745  0.1242538929271091
  0.7504037124307005  0.1238828889604632  0.8746076969067904
  0.7493059649211367  0.1258344501771389  0.6250924819566853
  0.7506370733800628  0.1241626013356304  0.3757211023406298
  0.7503555915085478  0.1254118878598181  0.1247293163422660
  0.2489697962525653  0.3739538949028663  0.8753959207717669
  0.2496097155219285  0.8766934739402421  0.8757323148482054
  0.2493867361598966  0.8751532807244693  0.3744906520021342
  0.2502280840591149  0.8744766151601338  0.1254036617826238
  0.5029065927961879  0.4977590809367424  0.6248814367790854
  0.5016095749846443  0.5001076569119101  0.1250663737302109
  0.4997727937602576  0.0001128244224041  0.8750903096627323
  0.4989541157197083  0.0012124262942861  0.6252037154747648
  0.4998161150041998  0.0000217498116369  0.3752956567935349
  0.4988901748974743 -0.0003834028416481  0.1245909403687076
  0.0013459980936471  0.2494901197208021  0.8749642394362901
 -0.0015229675431911  0.2499561548356897  0.6255328839336705
 -0.0013514439028661  0.2499307417137134  0.1247223817647936
 -0.0018690589058012  0.7506033162859113  0.8757355462229287
 -0.0001333827684196  0.7516528907578531  0.3749255831578991
  0.0010087420344723  0.7502786964966472  0.1246130481443644
  0.4997784598104363  0.7520026950826268  0.7505169633315335
  0.4984133968129537  0.7515672843872171  0.4999869392984532
  0.4977126043837835  0.7507389148209686  0.2490145041922742
  0.4989802902884592  0.7510839301999873  0.0003990027094320
  0.5022034984227551  0.2472941751312538  0.7500465863238774
  0.5025238596799998  0.2480230732838992  0.5003764966284093
  0.5015438522339959  0.2497192332113714  0.2494243459061269
  0.5015257006568125  0.2485490032997020  0.0000281493586338
 -0.0004113302823007  0.4983374432373020  0.7517594200160966
  0.0002005806229070  0.4999158860554866  0.5000113302873403
 -0.0001925403613790  0.5003266167335514  0.2486882554730268
 -0.0005885539340986  0.5002435792151911 -0.0004408945111946
 -0.0011776588878016  0.0024312699611168  0.7512666485665938
 -0.0007727969192805  0.0003329997937194  0.4994934848982374
  0.0009561315303527 -0.0007386307404239  0.2490889531103353
  0.0001395599619740 -0.0000482032994268 -0.0000126654293784
 
  0.00000000E+00  0.00000000E+00  0.00000000E+00
  0.00000000E+00  0.00000000E+00  0.00000000E+00
  0.00000000E+00  0.00000000E+00  0.00000000E+00
  0.00000000E+00  0.00000000E+00  0.00000000E+00
  0.00000000E+00  0.00000000E+00  0.00000000E+00
  0.00000000E+00  0.00000000E+00  0.00000000E+00
  0.00000000E+00  0.00000000E+00  0.00000000E+00
  0.00000000E+00  0.00000000E+00  0.00000000E+00
  0.00000000E+00  0.00000000E+00  0.00000000E+00
  0.00000000E+00  0.00000000E+00  0.00000000E+00
  0.00000000E+00  0.00000000E+00  0.00000000E+00
  0.00000000E+00  0.00000000E+00  0.00000000E+00
  0.00000000E+00  0.00000000E+00  0.00000000E+00
  0.00000000E+00  0.00000000E+00  0.00000000E+00
  0.00000000E+00  0.00000000E+00  0.00000000E+00
  0.00000000E+00  0.00000000E+00  0.00000000E+00
  0.00000000E+00  0.00000000E+00  0.00000000E+00
  0.00000000E+00  0.00000000E+00  0.00000000E+00
  0.00000000E+00  0.00000000E+00  0.00000000E+00
  0.00000000E+00  0.00000000E+00  0.00000000E+00
  0.00000000E+00  0.00000000E+00  0.00000000E+00
  0.00000000E+00  0.00000000E+00  0.00000000E+00
  0.00000000E+00  0.00000000E+00  0.00000000E+00
  0.00000000E+00  0.00000000E+00  0.00000000E+00
  0.00000000E+00  0.00000000E+00  0.00000000E+00
  0.00000000E+00  0.00000000E+00  0.00000000E+00
  0.00000000E+00  0.00000000E+00  0.00000000E+00
  0.00000000E+00  0.00000000E+00  0.00000000E+00
  0.00000000E+00  0.00000000E+00  0.00000000E+00
  0.00000000E+00  0.00000000E+00  0.00000000E+00
  0.00000000E+00  0.00000000E+00  0.00000000E+00
  0.00000000E+00  0.00000000E+00  0.00000000E+00
  0.00000000E+00  0.00000000E+00  0.00000000E+00
  0.00000000E+00  0.00000000E+00  0.00000000E+00
  0.00000000E+00  0.00000000E+00  0.00000000E+00
  0.00000000E+00  0.00000000E+00  0.00000000E+00
  0.00000000E+00  0.00000000E+00  0.00000000E+00
  0.00000000E+00  0.00000000E+00  0.00000000E+00
  0.00000000E+00  0.00000000E+00  0.00000000E+00
  0.00000000E+00  0.00000000E+00  0.00000000E+00
  0.00000000E+00  0.00000000E+00  0.00000000E+00
  0.00000000E+00  0.00000000E+00  0.00000000E+00
  0.00000000E+00  0.00000000E+00  0.00000000E+00
  0.00000000E+00  0.00000000E+00  0.00000000E+00
  0.00000000E+00  0.00000000E+00  0.00000000E+00
  0.00000000E+00  0.00000000E+00  0.00000000E+00
  0.00000000E+00  0.00000000E+00  0.00000000E+00
  0.00000000E+00  0.00000000E+00  0.00000000E+00
  0.00000000E+00  0.00000000E+00  0.00000000E+00
  0.00000000E+00  0.00000000E+00  0.00000000E+00
  0.00000000E+00  0.00000000E+00  0.00000000E+00
  0.00000000E+00  0.00000000E+00  0.00000000E+00
  0.00000000E+00  0.00000000E+00  0.00000000E+00
  0.00000000E+00  0.00000000E+00  0.00000000E+00
  0.00000000E+00  0.00000000E+00  0.00000000E+00
  0.00000000E+00  0.00000000E+00  0.00000000E+00
  0.00000000E+00  0.00000000E+00  0.00000000E+00
  0.00000000E+00  0.00000000E+00  0.00000000E+00
  0.00000000E+00  0.00000000E+00  0.00000000E+00
  0.00000000E+00  0.00000000E+00  0.00000000E+00
  0.00000000E+00  0.00000000E+00  0.00000000E+00
  0.00000000E+00  0.00000000E+00  0.00000000E+00
  0.00000000E+00  0.00000000E+00  0.00000000E+00
  0.00000000E+00  0.00000000E+00  0.00000000E+00
