title                                   
   1.00000000000000     
     0.0003041213286401   -3.8251515488769701   -7.6505320034853801
    -0.0000871013955267   -7.6516807497995352    0.0006887768242281
   -15.3090102454903914   -0.0001737423333106    0.0006953110860708
   Ir   Ru
    12    52
Direct
  0.7495518505615948  0.8758727186702018  0.2491922831877957
  0.2497287244709341  0.6247953042480532  0.7510949086739771
  0.7496507215664465  0.6247475925217572  0.6254321282928643
  0.7495210974273405  0.6257436821716738  0.3752601420937793
  0.2511102056382271  0.3728867287982922  0.6247304051790934
  0.2504727591999085  0.3749644894272848  0.3749377796829521
  0.2499201054599354  0.3752870240205226  0.1249363286741385
  0.2501812506335241  0.8765072209112930  0.6244305564999237
  0.5007761557996062  0.4995434498064029  0.8754611546838191
  0.4989979411331689  0.5003620835594589  0.3748191667247909
  0.0011342503407477  0.2479571925779283  0.3749955883975744
  0.9992218997632420  0.7512300894693809  0.6247936024210787
  0.7478830725390893  0.8766909512763874  0.7511217574235047
  0.7492900302474865  0.8770100884436118  0.4999631859702944
  0.7498496415674722  0.8745845602665128  0.9997042006937491
  0.7521348276653086  0.3731230569167039  0.7502068742128003
  0.7500507889106771  0.3733105246706288  0.5005396404150986
  0.7504023596966789  0.3742752159442020  0.2485320103178097
  0.7505527266488770  0.3752189085556026  0.0003844336865910
  0.2491575047970755  0.6261792988350479  0.4994793818510175
  0.2495398365144155  0.6268592937811732  0.2491872462488942
  0.2482905790260332  0.6265026803363369  0.0002459058940119
  0.2502899881222760  0.1253016649249261  0.7510329419144384
  0.2519427740542781  0.1234768097386691  0.5001507856334300
  0.2504348570837323  0.1231971950630069  0.2492384750109835
  0.2507066297469862  0.1241274922332494  0.9994315534483462
  0.7508841090519809  0.6255010973162527  0.8750008872602635
  0.7491643299091280  0.6246529667351766  0.1242538929271078
  0.7504037124307033  0.1238828889604662  0.8746076969067929
  0.7493059649211347  0.1258344501771376  0.6250924819566848
  0.7506370733800622  0.1241626013356338  0.3757211023406271
  0.7503555915085514  0.1254118878598192  0.1247293163422682
  0.2489697962525668  0.3739538949028685  0.8753959207717656
  0.2496097155219275  0.8766934739402430  0.8757323148482072
  0.2493867361598987  0.8751532807244686  0.3744906520021374
  0.2502280840591169  0.8744766151601340  0.1254036617826273
  0.5029065927961867  0.4977590809367456  0.6248814367790843
  0.5016095749846414  0.5001076569119078  0.1250663737302133
  0.4997727937602576  0.0001128244224020  0.8750903096627312
  0.4989541157197053  0.0012124262942876  0.6252037154747683
  0.4998161150042009  0.0000217498116371  0.3752956567935328
  0.4988901748974754  0.9996165971583508  0.1245909403687051
  0.0013459980936474  0.2494901197208037  0.8749642394362880
  0.9984770324568117  0.2499561548356866  0.6255328839336727
  0.9986485560971374  0.2499307417137118  0.1247223817647907
  0.9981309410941961  0.7506033162859111  0.8757355462229270
  0.9998666172315822  0.7516528907578532  0.3749255831578964
  0.0010087420344718  0.7502786964966504  0.1246130481443615
  0.4997784598104360  0.7520026950826235  0.7505169633315347
  0.4984133968129569  0.7515672843872139  0.4999869392984522
  0.4977126043837856  0.7507389148209711  0.2490145041922744
  0.4989802902884577  0.7510839301999894  0.0003990027094289
  0.5022034984227517  0.2472941751312518  0.7500465863238759
  0.5025238596799966  0.2480230732838962  0.5003764966284123
  0.5015438522339934  0.2497192332113727  0.2494243459061281
  0.5015257006568135  0.2485490032997006  0.0000281493586343
  0.9995886697177028  0.4983374432373040  0.7517594200161000
  0.0002005806229093  0.4999158860554900  0.5000113302873430
  0.9998074596386175  0.5003266167335525  0.2486882554730272
  0.9994114460658992  0.5002435792151942  0.9995591054888067
  0.9988223411121950  0.0024312699611144  0.7512666485665918
  0.9992272030807214  0.0003329997937200  0.4994934848982382
  0.0009561315303515  0.9992613692595782  0.2490889531103377
  0.0001395599619727  0.9999517967005715  0.9999873345706192
 
  0.00000000E+00  0.00000000E+00  0.00000000E+00
  0.00000000E+00  0.00000000E+00  0.00000000E+00
  0.00000000E+00  0.00000000E+00  0.00000000E+00
  0.00000000E+00  0.00000000E+00  0.00000000E+00
  0.00000000E+00  0.00000000E+00  0.00000000E+00
  0.00000000E+00  0.00000000E+00  0.00000000E+00
  0.00000000E+00  0.00000000E+00  0.00000000E+00
  0.00000000E+00  0.00000000E+00  0.00000000E+00
  0.00000000E+00  0.00000000E+00  0.00000000E+00
  0.00000000E+00  0.00000000E+00  0.00000000E+00
  0.00000000E+00  0.00000000E+00  0.00000000E+00
  0.00000000E+00  0.00000000E+00  0.00000000E+00
  0.00000000E+00  0.00000000E+00  0.00000000E+00
  0.00000000E+00  0.00000000E+00  0.00000000E+00
  0.00000000E+00  0.00000000E+00  0.00000000E+00
  0.00000000E+00  0.00000000E+00  0.00000000E+00
  0.00000000E+00  0.00000000E+00  0.00000000E+00
  0.00000000E+00  0.00000000E+00  0.00000000E+00
  0.00000000E+00  0.00000000E+00  0.00000000E+00
  0.00000000E+00  0.00000000E+00  0.00000000E+00
  0.00000000E+00  0.00000000E+00  0.00000000E+00
  0.00000000E+00  0.00000000E+00  0.00000000E+00
  0.00000000E+00  0.00000000E+00  0.00000000E+00
  0.00000000E+00  0.00000000E+00  0.00000000E+00
  0.00000000E+00  0.00000000E+00  0.00000000E+00
  0.00000000E+00  0.00000000E+00  0.00000000E+00
  0.00000000E+00  0.00000000E+00  0.00000000E+00
  0.00000000E+00  0.00000000E+00  0.00000000E+00
  0.00000000E+00  0.00000000E+00  0.00000000E+00
  0.00000000E+00  0.00000000E+00  0.00000000E+00
  0.00000000E+00  0.00000000E+00  0.00000000E+00
  0.00000000E+00  0.00000000E+00  0.00000000E+00
  0.00000000E+00  0.00000000E+00  0.00000000E+00
  0.00000000E+00  0.00000000E+00  0.00000000E+00
  0.00000000E+00  0.00000000E+00  0.00000000E+00
  0.00000000E+00  0.00000000E+00  0.00000000E+00
  0.00000000E+00  0.00000000E+00  0.00000000E+00
  0.00000000E+00  0.00000000E+00  0.00000000E+00
  0.00000000E+00  0.00000000E+00  0.00000000E+00
  0.00000000E+00  0.00000000E+00  0.00000000E+00
  0.00000000E+00  0.00000000E+00  0.00000000E+00
  0.00000000E+00  0.00000000E+00  0.00000000E+00
  0.00000000E+00  0.00000000E+00  0.00000000E+00
  0.00000000E+00  0.00000000E+00  0.00000000E+00
  0.00000000E+00  0.00000000E+00  0.00000000E+00
  0.00000000E+00  0.00000000E+00  0.00000000E+00
  0.00000000E+00  0.00000000E+00  0.00000000E+00
  0.00000000E+00  0.00000000E+00  0.00000000E+00
  0.00000000E+00  0.00000000E+00  0.00000000E+00
  0.00000000E+00  0.00000000E+00  0.00000000E+00
  0.00000000E+00  0.00000000E+00  0.00000000E+00
  0.00000000E+00  0.00000000E+00  0.00000000E+00
  0.00000000E+00  0.00000000E+00  0.00000000E+00
  0.00000000E+00  0.00000000E+00  0.00000000E+00
  0.00000000E+00  0.00000000E+00  0.00000000E+00
  0.00000000E+00  0.00000000E+00  0.00000000E+00
  0.00000000E+00  0.00000000E+00  0.00000000E+00
  0.00000000E+00  0.00000000E+00  0.00000000E+00
  0.00000000E+00  0.00000000E+00  0.00000000E+00
  0.00000000E+00  0.00000000E+00  0.00000000E+00
  0.00000000E+00  0.00000000E+00  0.00000000E+00
  0.00000000E+00  0.00000000E+00  0.00000000E+00
  0.00000000E+00  0.00000000E+00  0.00000000E+00
  0.00000000E+00  0.00000000E+00  0.00000000E+00
