SYSTEM = Ir_Ru
ISTART = 0
ICHARG = 2
PREC = Accurate
NCORE = 20
SIGMA = 0.1
NELMIN = 5
EDIFFG = 1E-05
ISMEAR=-5
IBRION=-1
ISIF=2
