title                                   
   1.00000000000000     
     4.6343644428605382    1.4155413481392718   -5.2847974031114369
     5.0171909665822190    8.0811476111638196    4.9703847443954619
     9.5258019757063899   -3.1752673252354331    6.3505346504681279
   Ir
    48
Direct
  0.7505736274554664  0.2255574767368216  0.9325198907135929
  0.0204377069306178  0.7262874997784008  0.0278179361396745
  0.0933424799026684  0.0140963623899966  0.9749494338943644
  0.7348920348695126  0.0319944238842089  0.1382917552399030
  0.7172433103411057  0.2301189912545347  0.2398313169005869
  0.1791808000208959  0.5869539677120178  0.2493127044047828
  0.8631984122848365  0.7172431025198425  0.2736182394525759
  0.9706936278339160  0.7071453858628655  0.4977308284548735
  0.0050537614027996  0.0269360424120101  0.3616384551840916
  0.1885810185639657  0.4405791621025666  0.4736061636836335
  0.1379012598586808  0.6007532931892520  0.6989856206133603
  0.8893119435679177  0.6450129245197324  0.8601923752832065
  0.9202437513235117  0.8975722104147061  0.6246521902016825
  0.0366968400729464  0.2138643390318053  0.7294962015591190
  0.6596188632594723  0.4516869448183575  0.0164533020426627
  0.5268999973292162  0.7775245122836604  0.8326131265059499
  0.4927342001767895  0.0944454527371672  0.9030990380277920
  0.3671007323615690  0.9754330759569366  0.1061426782539432
  0.3972160312888063  0.0786238713770349  0.3064088765470999
  0.1436751729532504  0.2793796116389321  0.3031232589081733
  0.5599632512936812  0.5898758229672211  0.3097817031799169
  0.1080761954259259  0.8486402566547592  0.2787306411554213
  0.2936938453803925  0.8117487409826102  0.5319394022957256
  0.3886534309020028  0.1953540536166420  0.6527612905344603
  0.4869231667641507  0.5255626271477825  0.8154818680261525
  0.4872241181439813  0.5517565127190015  0.5314167250671358
  0.6809455399202903  0.7329576627285368  0.6317136210806272
  0.1019148419159583  0.1548569619844806  0.5390406153077060
  0.4227287663425284  0.2564908880334737  0.0626004453158686
  0.1500527563987875  0.4387804028741691  0.9447793039754463
  0.8273204213418883  0.9628114380720599  0.8154367189972139
  0.0591938946200418  0.1589309617014662  0.1309772227431172
  0.3293974675553776  0.4872961265900091  0.1014048099763256
  0.9294440167326106  0.4487469431786502  0.1666635913482645
  0.7207959584177482  0.8899444277050554  0.0385210999447287
  0.5476182502746110  0.8122320303309482  0.3083131335636407
  0.6713184118340130  0.9209349714141273  0.4355348330094220
  0.4204579059389761  0.3323797280765888  0.3772487095458904
  0.8895597764517756  0.3909708079627409  0.3889396592285966
  0.8028559871584342  0.4901992079651313  0.5955062143067801
  0.7117865862730295  0.1594363341748144  0.5061339990625062
  0.5929899766014962  0.3101541152475094  0.7138979756201621
  0.9128596912936495  0.4154810434808952  0.8136425845091516
  0.2033854876393383  0.7268354578160569  0.8259858514667447
  0.4768742675921042  0.0022036639955718  0.5640529594308022
  0.2865417123573174  0.3388374163858394  0.7888087315741732
  0.6835967938347418  0.6463159270121511  0.0718808534208570
  0.2207123459578334  0.9506717502822362  0.8105421843959909
Lattice velocities
  0.13986037E-02 -0.17118536E-02 -0.10741547E-02
  0.14589894E-02  0.13494317E-02  0.23619517E-02
 -0.33836948E-02  0.15623837E-02 -0.25899138E-04
 
  0.73999904E-04 -0.15545784E-02  0.14026963E-02
 -0.22313979E-02 -0.27459563E-02  0.77930379E-02
  0.22900232E-04  0.44722579E-02 -0.71346886E-03
 -0.41066421E-04 -0.29719138E-02  0.26637102E-02
 -0.14356333E-02  0.46540783E-02  0.20899106E-02
 -0.30583083E-02  0.87690089E-03  0.90053050E-03
 -0.16713241E-03 -0.96576109E-03  0.87997348E-02
 -0.57366687E-02 -0.15927336E-02 -0.49968261E-02
 -0.39334567E-02 -0.14124194E-02  0.49450982E-02
  0.12781633E-03  0.21253753E-02  0.40868908E-02
  0.66534458E-03  0.31251381E-02  0.26015328E-03
  0.23420571E-02  0.18605886E-02  0.65170891E-02
  0.72622668E-03 -0.22497115E-03  0.74116272E-02
  0.30313464E-03  0.29938499E-02 -0.55747952E-02
  0.20986632E-02 -0.99409949E-03  0.35111235E-02
  0.81612574E-03  0.43877777E-02  0.16920257E-02
 -0.27969242E-02 -0.28791709E-02 -0.20591409E-02
 -0.56144812E-03 -0.17743226E-02 -0.43836593E-02
  0.30241581E-02 -0.57921541E-03  0.50298729E-02
 -0.15892820E-02  0.40199373E-02  0.42390681E-02
  0.13987415E-02  0.78566829E-03 -0.13392445E-02
 -0.51938709E-02 -0.39559507E-02 -0.20544695E-02
  0.21315690E-02  0.14412703E-02  0.49235998E-03
  0.83924283E-03 -0.44812711E-02  0.75568513E-03
  0.22803960E-02  0.25743163E-02  0.68835177E-03
 -0.10390433E-02  0.43911076E-02  0.20119658E-02
  0.59754004E-02 -0.12743576E-02 -0.79618411E-02
  0.82957298E-03 -0.26927872E-02 -0.11583505E-02
  0.94405803E-03  0.40215956E-02  0.38541042E-02
 -0.30093559E-02  0.57199893E-04 -0.29573143E-02
 -0.45777506E-02 -0.25185682E-02  0.94536790E-03
 -0.16099634E-02 -0.88784409E-03  0.95594464E-03
  0.36366476E-02  0.97660868E-03  0.38182116E-02
  0.13605927E-02 -0.18347023E-02  0.35993792E-02
 -0.14816752E-02 -0.32115446E-02  0.20912194E-02
  0.64357616E-02 -0.32325196E-03 -0.34972971E-03
  0.19427310E-02  0.85220224E-02  0.20316553E-03
  0.38903886E-02 -0.29144827E-02  0.61290892E-02
  0.42115230E-02  0.10699740E-02 -0.63646714E-03
  0.29594484E-02 -0.47221801E-02 -0.35101400E-02
 -0.50639055E-02  0.33280673E-02 -0.24163241E-02
 -0.62003577E-02  0.39210572E-02  0.19334163E-02
  0.59525303E-02  0.36799150E-03 -0.17191199E-02
  0.37080941E-02  0.20834567E-03  0.24540877E-02
  0.18835916E-02 -0.10489814E-02 -0.43431540E-02
  0.28482622E-02  0.46280481E-03  0.15255390E-02
  0.52600487E-03  0.82661037E-03  0.79437546E-03
 -0.17384263E-02  0.11655473E-02 -0.16255459E-02
 
           1
   1.50000000000000     
  0.10000000E+01  0.00000000E+00  0.00000000E+00  0.00000000E+00
  0.75057363E+00  0.22555748E+00  0.93251989E+00
  0.20437707E-01  0.72628750E+00  0.27817936E-01
  0.93342480E-01  0.14096362E-01  0.97494943E+00
  0.73489203E+00  0.31994424E-01  0.13829176E+00
  0.71724331E+00  0.23011899E+00  0.23983132E+00
  0.17918080E+00  0.58695397E+00  0.24931270E+00
  0.86319841E+00  0.71724310E+00  0.27361824E+00
  0.97069363E+00  0.70714539E+00  0.49773083E+00
  0.50537614E-02  0.26936042E-01  0.36163846E+00
  0.18858102E+00  0.44057916E+00  0.47360616E+00
  0.13790126E+00  0.60075329E+00  0.69898562E+00
  0.88931194E+00  0.64501292E+00  0.86019238E+00
  0.92024375E+00  0.89757221E+00  0.62465219E+00
  0.36696840E-01  0.21386434E+00  0.72949620E+00
  0.65961886E+00  0.45168694E+00  0.16453302E-01
  0.52690000E+00  0.77752451E+00  0.83261313E+00
  0.49273420E+00  0.94445453E-01  0.90309904E+00
  0.36710073E+00  0.97543308E+00  0.10614268E+00
  0.39721603E+00  0.78623871E-01  0.30640888E+00
  0.14367517E+00  0.27937961E+00  0.30312326E+00
  0.55996325E+00  0.58987582E+00  0.30978170E+00
  0.10807620E+00  0.84864026E+00  0.27873064E+00
  0.29369385E+00  0.81174874E+00  0.53193940E+00
  0.38865343E+00  0.19535405E+00  0.65276129E+00
  0.48692317E+00  0.52556263E+00  0.81548187E+00
  0.48722412E+00  0.55175651E+00  0.53141673E+00
  0.68094554E+00  0.73295766E+00  0.63171362E+00
  0.10191484E+00  0.15485696E+00  0.53904062E+00
  0.42272877E+00  0.25649089E+00  0.62600445E-01
  0.15005276E+00  0.43878040E+00  0.94477930E+00
  0.82732042E+00  0.96281144E+00  0.81543672E+00
  0.59193895E-01  0.15893096E+00  0.13097722E+00
  0.32939747E+00  0.48729613E+00  0.10140481E+00
  0.92944402E+00  0.44874694E+00  0.16666359E+00
  0.72079596E+00  0.88994443E+00  0.38521100E-01
  0.54761825E+00  0.81223203E+00  0.30831313E+00
  0.67131841E+00  0.92093497E+00  0.43553483E+00
  0.42045791E+00  0.33237973E+00  0.37724871E+00
  0.88955978E+00  0.39097081E+00  0.38893966E+00
  0.80285599E+00  0.49019921E+00  0.59550621E+00
  0.71178659E+00  0.15943633E+00  0.50613400E+00
  0.59298998E+00  0.31015412E+00  0.71389798E+00
  0.91285969E+00  0.41548104E+00  0.81364258E+00
  0.20338549E+00  0.72683546E+00  0.82598585E+00
  0.47687427E+00  0.22036640E-02  0.56405296E+00
  0.28654171E+00  0.33883742E+00  0.78880873E+00
  0.68359679E+00  0.64631593E+00  0.71880853E-01
  0.22071235E+00  0.95067175E+00  0.81054218E+00
  0.00000000E+00  0.00000000E+00  0.00000000E+00
  0.00000000E+00  0.00000000E+00  0.00000000E+00
  0.00000000E+00  0.00000000E+00  0.00000000E+00
  0.00000000E+00  0.00000000E+00  0.00000000E+00
  0.00000000E+00  0.00000000E+00  0.00000000E+00
  0.00000000E+00  0.00000000E+00  0.00000000E+00
  0.00000000E+00  0.00000000E+00  0.00000000E+00
  0.00000000E+00  0.00000000E+00  0.00000000E+00
  0.00000000E+00  0.00000000E+00  0.00000000E+00
  0.00000000E+00  0.00000000E+00  0.00000000E+00
  0.00000000E+00  0.00000000E+00  0.00000000E+00
  0.00000000E+00  0.00000000E+00  0.00000000E+00
  0.00000000E+00  0.00000000E+00  0.00000000E+00
  0.00000000E+00  0.00000000E+00  0.00000000E+00
  0.00000000E+00  0.00000000E+00  0.00000000E+00
  0.00000000E+00  0.00000000E+00  0.00000000E+00
  0.00000000E+00  0.00000000E+00  0.00000000E+00
  0.00000000E+00  0.00000000E+00  0.00000000E+00
  0.00000000E+00  0.00000000E+00  0.00000000E+00
  0.00000000E+00  0.00000000E+00  0.00000000E+00
  0.00000000E+00  0.00000000E+00  0.00000000E+00
  0.00000000E+00  0.00000000E+00  0.00000000E+00
  0.00000000E+00  0.00000000E+00  0.00000000E+00
  0.00000000E+00  0.00000000E+00  0.00000000E+00
  0.00000000E+00  0.00000000E+00  0.00000000E+00
  0.00000000E+00  0.00000000E+00  0.00000000E+00
  0.00000000E+00  0.00000000E+00  0.00000000E+00
  0.00000000E+00  0.00000000E+00  0.00000000E+00
  0.00000000E+00  0.00000000E+00  0.00000000E+00
  0.00000000E+00  0.00000000E+00  0.00000000E+00
  0.00000000E+00  0.00000000E+00  0.00000000E+00
  0.00000000E+00  0.00000000E+00  0.00000000E+00
  0.00000000E+00  0.00000000E+00  0.00000000E+00
  0.00000000E+00  0.00000000E+00  0.00000000E+00
  0.00000000E+00  0.00000000E+00  0.00000000E+00
  0.00000000E+00  0.00000000E+00  0.00000000E+00
  0.00000000E+00  0.00000000E+00  0.00000000E+00
  0.00000000E+00  0.00000000E+00  0.00000000E+00
  0.00000000E+00  0.00000000E+00  0.00000000E+00
  0.00000000E+00  0.00000000E+00  0.00000000E+00
  0.00000000E+00  0.00000000E+00  0.00000000E+00
  0.00000000E+00  0.00000000E+00  0.00000000E+00
  0.00000000E+00  0.00000000E+00  0.00000000E+00
  0.00000000E+00  0.00000000E+00  0.00000000E+00
  0.00000000E+00  0.00000000E+00  0.00000000E+00
  0.00000000E+00  0.00000000E+00  0.00000000E+00
  0.00000000E+00  0.00000000E+00  0.00000000E+00
  0.00000000E+00  0.00000000E+00  0.00000000E+00
  0.00000000E+00  0.00000000E+00  0.00000000E+00
  0.00000000E+00  0.00000000E+00  0.00000000E+00
  0.00000000E+00  0.00000000E+00  0.00000000E+00
  0.00000000E+00  0.00000000E+00  0.00000000E+00
  0.00000000E+00  0.00000000E+00  0.00000000E+00
  0.00000000E+00  0.00000000E+00  0.00000000E+00
  0.00000000E+00  0.00000000E+00  0.00000000E+00
  0.00000000E+00  0.00000000E+00  0.00000000E+00
  0.00000000E+00  0.00000000E+00  0.00000000E+00
  0.00000000E+00  0.00000000E+00  0.00000000E+00
  0.00000000E+00  0.00000000E+00  0.00000000E+00
  0.00000000E+00  0.00000000E+00  0.00000000E+00
  0.00000000E+00  0.00000000E+00  0.00000000E+00
  0.00000000E+00  0.00000000E+00  0.00000000E+00
  0.00000000E+00  0.00000000E+00  0.00000000E+00
  0.00000000E+00  0.00000000E+00  0.00000000E+00
  0.00000000E+00  0.00000000E+00  0.00000000E+00
  0.00000000E+00  0.00000000E+00  0.00000000E+00
  0.00000000E+00  0.00000000E+00  0.00000000E+00
  0.00000000E+00  0.00000000E+00  0.00000000E+00
  0.00000000E+00  0.00000000E+00  0.00000000E+00
  0.00000000E+00  0.00000000E+00  0.00000000E+00
  0.00000000E+00  0.00000000E+00  0.00000000E+00
  0.00000000E+00  0.00000000E+00  0.00000000E+00
  0.00000000E+00  0.00000000E+00  0.00000000E+00
  0.00000000E+00  0.00000000E+00  0.00000000E+00
  0.00000000E+00  0.00000000E+00  0.00000000E+00
  0.00000000E+00  0.00000000E+00  0.00000000E+00
  0.00000000E+00  0.00000000E+00  0.00000000E+00
  0.00000000E+00  0.00000000E+00  0.00000000E+00
  0.00000000E+00  0.00000000E+00  0.00000000E+00
  0.00000000E+00  0.00000000E+00  0.00000000E+00
  0.00000000E+00  0.00000000E+00  0.00000000E+00
  0.00000000E+00  0.00000000E+00  0.00000000E+00
  0.00000000E+00  0.00000000E+00  0.00000000E+00
  0.00000000E+00  0.00000000E+00  0.00000000E+00
  0.00000000E+00  0.00000000E+00  0.00000000E+00
  0.00000000E+00  0.00000000E+00  0.00000000E+00
  0.00000000E+00  0.00000000E+00  0.00000000E+00
  0.00000000E+00  0.00000000E+00  0.00000000E+00
  0.00000000E+00  0.00000000E+00  0.00000000E+00
  0.00000000E+00  0.00000000E+00  0.00000000E+00
  0.00000000E+00  0.00000000E+00  0.00000000E+00
  0.00000000E+00  0.00000000E+00  0.00000000E+00
  0.00000000E+00  0.00000000E+00  0.00000000E+00
  0.00000000E+00  0.00000000E+00  0.00000000E+00
  0.00000000E+00  0.00000000E+00  0.00000000E+00
  0.00000000E+00  0.00000000E+00  0.00000000E+00
