Ir_Ru                                   
   1.00000000000000     
     4.5224799999999998    1.5735600000000001   -5.5566000000000004
     5.6953899999999997    7.4305599999999998    5.3517700000000001
     9.8991199999999999   -3.2997000000000001    6.5994000000000002
   Ir
    48
Direct
  0.4060555848936596  0.9665436634220201  0.9135659726384493
  0.8429427052122114  0.8327542870592273  0.1199972547315496
  0.1222934607695974  0.9014100838161404  0.7922083828010397
  0.2738807281140967  0.5906173086876114  0.5464893441296844
  0.6588577231255814  0.1653265420150589  0.3282261147877722
  0.0984304979054297  0.7041052749549913  0.3389384828314361
  0.0866734979766040  0.0987823747057881  0.5737191195253895
  0.0621532127757409  0.3837627632732308  0.5089959804006829
  0.1792440222472949  0.9246894970288559  0.1704560343035200
  0.9924871628766012  0.2828399008519814  0.7614892604145699
  0.3301025167545584  0.4793150501915707  0.1102532763105690
  0.5319743237273629  0.8218750719126344  0.7751163905002963
  0.2473407232624619  0.8425689568875303  0.6439656632710606
  0.0469007220644584  0.0408302838613024  0.9154589406089980
  0.6573258371707303  0.7247212522018643  0.6155852520043990
  0.6536798217885330  0.1420163806397468  0.9266336986179137
  0.1133407576395002  0.3474357770049781  0.9861406697301924
  0.4756503773629824  0.4925195305795689  0.4259777611977986
  0.1076091480939515  0.1179279623394706  0.2367680938498314
  0.8139374612939889  0.9789008904312162  0.2915659273374033
  0.9069414256114514  0.5657857724339539  0.5728159879189531
  0.1855406974818073  0.7709269032081449  0.0735029885178042
  0.3676888375098132  0.8586957017938402  0.4069899770814815
  0.4552119300956560  0.2350935373781524  0.1151037407853727
  0.8311446584143558  0.2813097493771020  0.1039539075729110
  0.6172585514900788  0.3707229645223522  0.6782950858341767
  0.9820312841514633  0.8215042248177794  0.5159261918125946
  0.5882330904993682  0.4401588707321104  0.2495535409049173
  0.9752126309510721  0.4766617599690393  0.1192121480752013
  0.8827241971992000  0.5616786552001886  0.2944725085838218
  0.8469866918841464  0.8277966981846346  0.9217669650375793
  0.7320559493651551  0.4152799535323607  0.8341951044801503
  0.3308406765402519  0.1384261537594850  0.9732888847077010
  0.5005080289324026  0.7249817933828842  0.2031456296785376
  0.5315148133966220  0.6971684150628619  0.0127691576910730
  0.7080344277266508  0.7232823226205447  0.4072210072738320
  0.5925615568090234  0.9587735382480835  0.1653707135294074
  0.7569711782754874  0.9486987897036202  0.5849107232582577
  0.0305907527547447  0.2774539335006638  0.3320657718620111
  0.4066547373590286  0.1303252677797642  0.5194127073164805
  0.7719216449956103  0.2951327468354275  0.5079684242991578
  0.2147765563273646  0.5043821258199938  0.2910892238107148
  0.2749644543479115  0.3963480924041181  0.7584911815434997
  0.4190092459260024  0.5683799834802480  0.8338634853523383
  0.7128561602571759  0.0974839120947846  0.7002010799197066
  0.2795414666351522  0.1667095721232583  0.7059163265626566
  0.6547310820229506  0.5192781708169224  0.9612672010094602
  0.0489629879847164  0.5959975393528238  0.7529887155877008
 
  0.25129668E-02 -0.33882508E-02 -0.35310557E-02
  0.28340141E-03 -0.14781115E-02 -0.83618660E-03
  0.31643539E-03  0.13385848E-02  0.78385312E-03
  0.17948369E-02  0.32587538E-02  0.14081546E-02
  0.11236203E-02  0.39384841E-02  0.43132568E-02
 -0.51742055E-03 -0.57410232E-02  0.97974110E-03
 -0.26075562E-02 -0.27955945E-02  0.57730381E-02
 -0.57335413E-02  0.27326660E-03 -0.29208872E-03
 -0.82631380E-03 -0.12074188E-02  0.36512571E-02
  0.81880024E-02  0.86077045E-02  0.64064789E-03
  0.33107380E-02 -0.12996475E-03  0.20713518E-03
 -0.66737435E-02 -0.11002630E-03  0.23363434E-03
  0.89860344E-02  0.35047171E-02 -0.27012698E-02
  0.38543100E-02  0.18313621E-03 -0.48191573E-02
 -0.68988332E-03 -0.32640090E-02  0.12448564E-02
  0.72720631E-04 -0.84517569E-03 -0.26957898E-02
  0.49940717E-02  0.21938730E-02 -0.22348597E-03
  0.26298684E-03 -0.58011311E-02 -0.36524313E-02
  0.47102534E-02  0.20623541E-02 -0.27023331E-02
 -0.23247461E-02  0.55731410E-02 -0.28832930E-02
  0.48973743E-02 -0.49468086E-02 -0.23306808E-02
 -0.94212634E-03 -0.45631410E-02  0.40396582E-03
 -0.18682197E-02  0.66941394E-02 -0.29825543E-02
 -0.78749573E-02  0.40474972E-02  0.45340583E-03
  0.26733558E-02  0.92521183E-03 -0.16309331E-02
 -0.84678117E-03  0.14252878E-02  0.86107118E-03
  0.31076462E-02  0.18784672E-02  0.20552788E-03
 -0.57323569E-02 -0.87565840E-03  0.26473671E-02
 -0.11148906E-02  0.10479147E-02  0.34377251E-02
 -0.49457944E-02 -0.17326169E-02 -0.41184845E-02
 -0.23262224E-02 -0.34898934E-02  0.19636227E-02
  0.24019610E-02 -0.23068456E-02  0.23740684E-02
 -0.24753382E-02  0.32062650E-02 -0.19672580E-02
 -0.16880236E-02 -0.18386989E-03  0.11462848E-02
  0.77468497E-03  0.91037773E-03  0.15896515E-02
  0.18596862E-02 -0.49390217E-02  0.14975178E-03
  0.44898352E-02 -0.18059675E-02  0.25058325E-02
  0.42806861E-04  0.99487017E-04  0.32301196E-02
 -0.23273294E-02 -0.44503979E-02  0.42723471E-02
  0.83414034E-03  0.15747563E-02 -0.19185831E-02
 -0.39410873E-02 -0.10372915E-02 -0.23286153E-03
 -0.13066740E-02 -0.66337741E-03 -0.78619981E-03
  0.70762424E-03  0.16469886E-02 -0.10094936E-02
 -0.20468409E-02  0.54268755E-02 -0.25733745E-02
 -0.23329784E-02  0.90004929E-03  0.13580409E-03
 -0.49117742E-03  0.12617407E-02 -0.58737741E-03
 -0.65440580E-03 -0.27533051E-02  0.40772603E-02
  0.88915467E-04 -0.34701734E-02 -0.42144883E-02
 
           1
   1.50000000000000     
 -0.31569177E-01  0.16390063E-02  0.28461364E-02 -0.33811748E-01
  0.40605558E+00  0.96654366E+00  0.91356597E+00
  0.84294271E+00  0.83275429E+00  0.11999725E+00
  0.12229346E+00  0.90141008E+00  0.79220838E+00
  0.27388073E+00  0.59061731E+00  0.54648934E+00
  0.65885772E+00  0.16532654E+00  0.32822611E+00
  0.98430498E-01  0.70410527E+00  0.33893848E+00
  0.86673498E-01  0.98782375E-01  0.57371912E+00
  0.62153213E-01  0.38376276E+00  0.50899598E+00
  0.17924402E+00  0.92468950E+00  0.17045603E+00
  0.99248716E+00  0.28283990E+00  0.76148926E+00
  0.33010252E+00  0.47931505E+00  0.11025328E+00
  0.53197432E+00  0.82187507E+00  0.77511639E+00
  0.24734072E+00  0.84256896E+00  0.64396566E+00
  0.46900722E-01  0.40830284E-01  0.91545894E+00
  0.65732584E+00  0.72472125E+00  0.61558525E+00
  0.65367982E+00  0.14201638E+00  0.92663370E+00
  0.11334076E+00  0.34743578E+00  0.98614067E+00
  0.47565038E+00  0.49251953E+00  0.42597776E+00
  0.10760915E+00  0.11792796E+00  0.23676809E+00
  0.81393746E+00  0.97890089E+00  0.29156593E+00
  0.90694143E+00  0.56578577E+00  0.57281599E+00
  0.18554070E+00  0.77092690E+00  0.73502989E-01
  0.36768884E+00  0.85869570E+00  0.40698998E+00
  0.45521193E+00  0.23509354E+00  0.11510374E+00
  0.83114466E+00  0.28130975E+00  0.10395391E+00
  0.61725855E+00  0.37072296E+00  0.67829509E+00
  0.98203128E+00  0.82150422E+00  0.51592619E+00
  0.58823309E+00  0.44015887E+00  0.24955354E+00
  0.97521263E+00  0.47666176E+00  0.11921215E+00
  0.88272420E+00  0.56167866E+00  0.29447251E+00
  0.84698669E+00  0.82779670E+00  0.92176697E+00
  0.73205595E+00  0.41527995E+00  0.83419510E+00
  0.33084068E+00  0.13842615E+00  0.97328888E+00
  0.50050803E+00  0.72498179E+00  0.20314563E+00
  0.53151481E+00  0.69716842E+00  0.12769158E-01
  0.70803443E+00  0.72328232E+00  0.40722101E+00
  0.59256156E+00  0.95877354E+00  0.16537071E+00
  0.75697118E+00  0.94869879E+00  0.58491072E+00
  0.30590753E-01  0.27745393E+00  0.33206577E+00
  0.40665474E+00  0.13032527E+00  0.51941271E+00
  0.77192164E+00  0.29513275E+00  0.50796842E+00
  0.21477656E+00  0.50438213E+00  0.29108922E+00
  0.27496445E+00  0.39634809E+00  0.75849118E+00
  0.41900925E+00  0.56837998E+00  0.83386349E+00
  0.71285616E+00  0.97483912E-01  0.70020108E+00
  0.27954147E+00  0.16670957E+00  0.70591633E+00
  0.65473108E+00  0.51927817E+00  0.96126720E+00
  0.48962988E-01  0.59599754E+00  0.75298872E+00
  0.00000000E+00  0.00000000E+00  0.00000000E+00
  0.00000000E+00  0.00000000E+00  0.00000000E+00
  0.00000000E+00  0.00000000E+00  0.00000000E+00
  0.00000000E+00  0.00000000E+00  0.00000000E+00
  0.00000000E+00  0.00000000E+00  0.00000000E+00
  0.00000000E+00  0.00000000E+00  0.00000000E+00
  0.00000000E+00  0.00000000E+00  0.00000000E+00
  0.00000000E+00  0.00000000E+00  0.00000000E+00
  0.00000000E+00  0.00000000E+00  0.00000000E+00
  0.00000000E+00  0.00000000E+00  0.00000000E+00
  0.00000000E+00  0.00000000E+00  0.00000000E+00
  0.00000000E+00  0.00000000E+00  0.00000000E+00
  0.00000000E+00  0.00000000E+00  0.00000000E+00
  0.00000000E+00  0.00000000E+00  0.00000000E+00
  0.00000000E+00  0.00000000E+00  0.00000000E+00
  0.00000000E+00  0.00000000E+00  0.00000000E+00
  0.00000000E+00  0.00000000E+00  0.00000000E+00
  0.00000000E+00  0.00000000E+00  0.00000000E+00
  0.00000000E+00  0.00000000E+00  0.00000000E+00
  0.00000000E+00  0.00000000E+00  0.00000000E+00
  0.00000000E+00  0.00000000E+00  0.00000000E+00
  0.00000000E+00  0.00000000E+00  0.00000000E+00
  0.00000000E+00  0.00000000E+00  0.00000000E+00
  0.00000000E+00  0.00000000E+00  0.00000000E+00
  0.00000000E+00  0.00000000E+00  0.00000000E+00
  0.00000000E+00  0.00000000E+00  0.00000000E+00
  0.00000000E+00  0.00000000E+00  0.00000000E+00
  0.00000000E+00  0.00000000E+00  0.00000000E+00
  0.00000000E+00  0.00000000E+00  0.00000000E+00
  0.00000000E+00  0.00000000E+00  0.00000000E+00
  0.00000000E+00  0.00000000E+00  0.00000000E+00
  0.00000000E+00  0.00000000E+00  0.00000000E+00
  0.00000000E+00  0.00000000E+00  0.00000000E+00
  0.00000000E+00  0.00000000E+00  0.00000000E+00
  0.00000000E+00  0.00000000E+00  0.00000000E+00
  0.00000000E+00  0.00000000E+00  0.00000000E+00
  0.00000000E+00  0.00000000E+00  0.00000000E+00
  0.00000000E+00  0.00000000E+00  0.00000000E+00
  0.00000000E+00  0.00000000E+00  0.00000000E+00
  0.00000000E+00  0.00000000E+00  0.00000000E+00
  0.00000000E+00  0.00000000E+00  0.00000000E+00
  0.00000000E+00  0.00000000E+00  0.00000000E+00
  0.00000000E+00  0.00000000E+00  0.00000000E+00
  0.00000000E+00  0.00000000E+00  0.00000000E+00
  0.00000000E+00  0.00000000E+00  0.00000000E+00
  0.00000000E+00  0.00000000E+00  0.00000000E+00
  0.00000000E+00  0.00000000E+00  0.00000000E+00
  0.00000000E+00  0.00000000E+00  0.00000000E+00
  0.00000000E+00  0.00000000E+00  0.00000000E+00
  0.00000000E+00  0.00000000E+00  0.00000000E+00
  0.00000000E+00  0.00000000E+00  0.00000000E+00
  0.00000000E+00  0.00000000E+00  0.00000000E+00
  0.00000000E+00  0.00000000E+00  0.00000000E+00
  0.00000000E+00  0.00000000E+00  0.00000000E+00
  0.00000000E+00  0.00000000E+00  0.00000000E+00
  0.00000000E+00  0.00000000E+00  0.00000000E+00
  0.00000000E+00  0.00000000E+00  0.00000000E+00
  0.00000000E+00  0.00000000E+00  0.00000000E+00
  0.00000000E+00  0.00000000E+00  0.00000000E+00
  0.00000000E+00  0.00000000E+00  0.00000000E+00
  0.00000000E+00  0.00000000E+00  0.00000000E+00
  0.00000000E+00  0.00000000E+00  0.00000000E+00
  0.00000000E+00  0.00000000E+00  0.00000000E+00
  0.00000000E+00  0.00000000E+00  0.00000000E+00
  0.00000000E+00  0.00000000E+00  0.00000000E+00
  0.00000000E+00  0.00000000E+00  0.00000000E+00
  0.00000000E+00  0.00000000E+00  0.00000000E+00
  0.00000000E+00  0.00000000E+00  0.00000000E+00
  0.00000000E+00  0.00000000E+00  0.00000000E+00
  0.00000000E+00  0.00000000E+00  0.00000000E+00
  0.00000000E+00  0.00000000E+00  0.00000000E+00
  0.00000000E+00  0.00000000E+00  0.00000000E+00
  0.00000000E+00  0.00000000E+00  0.00000000E+00
  0.00000000E+00  0.00000000E+00  0.00000000E+00
  0.00000000E+00  0.00000000E+00  0.00000000E+00
  0.00000000E+00  0.00000000E+00  0.00000000E+00
  0.00000000E+00  0.00000000E+00  0.00000000E+00
  0.00000000E+00  0.00000000E+00  0.00000000E+00
  0.00000000E+00  0.00000000E+00  0.00000000E+00
  0.00000000E+00  0.00000000E+00  0.00000000E+00
  0.00000000E+00  0.00000000E+00  0.00000000E+00
  0.00000000E+00  0.00000000E+00  0.00000000E+00
  0.00000000E+00  0.00000000E+00  0.00000000E+00
  0.00000000E+00  0.00000000E+00  0.00000000E+00
  0.00000000E+00  0.00000000E+00  0.00000000E+00
  0.00000000E+00  0.00000000E+00  0.00000000E+00
  0.00000000E+00  0.00000000E+00  0.00000000E+00
  0.00000000E+00  0.00000000E+00  0.00000000E+00
  0.00000000E+00  0.00000000E+00  0.00000000E+00
  0.00000000E+00  0.00000000E+00  0.00000000E+00
  0.00000000E+00  0.00000000E+00  0.00000000E+00
  0.00000000E+00  0.00000000E+00  0.00000000E+00
  0.00000000E+00  0.00000000E+00  0.00000000E+00
  0.00000000E+00  0.00000000E+00  0.00000000E+00
  0.00000000E+00  0.00000000E+00  0.00000000E+00
  0.00000000E+00  0.00000000E+00  0.00000000E+00
