title                                   
   1.00000000000000     
     9.1374430308698020    5.8240991621180331   -2.0440744967089697
    -0.4993049083849377    7.4290985794937194    0.8775739960770410
    12.3934977463146616   -4.1311659154378741    8.2623318308791838
   Ir
    48
Direct
  0.3921171905490547  0.3097932222923216  0.2929525513719340
  0.5416729051178334  0.6742846026145957  0.5809859380423159
  0.8308521846861068  0.2170514672135371  0.4095131732328465
  0.1292354747073023  0.5420542891376645  0.4786687726474113
  0.7336539950199116  0.6511009092586251  0.8028945359860108
  0.8461394445624446  0.8563668988402873  0.8595624229837002
  0.3129812191731586  0.7140631578768057  0.7521628649165264
  0.2588153077089476  0.4921223017523255  0.9618270954433034
  0.3975100850145339  0.9370953507939412  0.8649988148870948
  0.4796539860624900  0.8558024984541912  0.1600523420415152
  0.9151426203441528  0.4747780790160485  0.4981440785915929
  0.0705856900434458  0.7750024470108161  0.2052470170403582
  0.3398741756156579  0.9918583673536427  0.0584569162746875
  0.1120227634763648  0.5049622654846901  0.3001980280340850
  0.5653679891666524  0.9322203297852037  0.2986330087163762
  0.2304973907307073  0.1032330123879452  0.7363605523956152
  0.4172753269289645  0.7448801320498959  0.3567118333901600
  0.0260077068593803  0.2089904325843643  0.7078673083243536
  0.4496070272192242  0.0294639379238757  0.5201877919182787
  0.5472321968758045  0.3268806326305513  0.7496409802415529
  0.5577092510636069  0.0767131654356934  0.0365967703188057
  0.4359465947568814  0.4942277268894135  0.0174356781450051
  0.9852346171952480  0.1957513884201494  0.2307774524330293
  0.0398760530423311  0.3650444163505178  0.9542262824487460
  0.7863021559516270  0.7150209847700306  0.3154264205359267
  0.1373808003115500  0.5932142203723285  0.8743324386969119
  0.7926987570341949  0.4712972553409331  0.1394195772070848
  0.6995013947181665  0.2713249224785474  0.0491664053509611
  0.7676510630066843  0.8349840326082651  0.4830387697139163
  0.7304999735321812  0.1219385756091482  0.2660269112703477
  0.3678052783789671  0.5428597791315808  0.1972111960972516
  0.0640092904439076  0.8686308553753179  0.4171657594679778
  0.5725407501342625  0.2629420183404814  0.5566028680059734
  0.2117041313993217  0.4528850764119827  0.6593383676095658
  0.0565465867847866  0.8332631295781343  0.6442610838789261
  0.9916711943110890  0.0181765976581887  0.8423484376797767
  0.1303830878480744  0.0958668025519667  0.5081597507299671
  0.7406411871316407  0.2754030133471481  0.7802878653418496
  0.9484766360461170  0.9891683817146140  0.0594792789172041
  0.7450916945869327  0.5248126174995544  0.9381974723812264
  0.7639122812534520  0.7967314548328721  0.0817058289233685
  0.7389920393699020  0.3860301031681956  0.6328568515080042
  0.1281010387013624  0.3331821689153260  0.0886684501390667
  0.3929790096424832  0.5552820405211678  0.5280157745227432
  0.2122354993330378  0.9927456354827404  0.2541540007818481
  0.6394907397906674  0.5197737169159626  0.3723149411246129
  0.5693670332967841  0.0939459207225353  0.8540848113218015
  0.9819826640223878  0.5205127027221212  0.6498190255293681
Lattice velocities
  0.48870840E-02  0.22455026E-02  0.39263823E-03
 -0.23856308E-02 -0.49798253E-03 -0.10769446E-02
 -0.74764706E-03  0.52053472E-04  0.68367364E-03
 
 -0.54669888E-03  0.98533306E-04 -0.33220966E-02
  0.30980007E-02  0.22368341E-02  0.46110150E-02
 -0.46187490E-02  0.68991831E-03  0.82640775E-03
  0.13214039E-02 -0.25877300E-02  0.17298993E-02
  0.10232034E-02 -0.32195802E-02 -0.38782627E-02
  0.10986461E-03  0.94295670E-03  0.73439339E-02
  0.23489298E-02  0.60261301E-02  0.27058052E-02
 -0.83275833E-03 -0.71739357E-03  0.53962200E-02
 -0.19180849E-02  0.55416009E-02 -0.19315358E-03
  0.56222129E-02  0.49293867E-02  0.20998072E-02
 -0.17797622E-02 -0.14489716E-03  0.87790488E-03
  0.93902459E-03  0.50472108E-02 -0.20616954E-02
 -0.89202338E-02  0.48431884E-03  0.51666603E-02
 -0.38082377E-02  0.31310024E-02 -0.27742337E-02
 -0.20213174E-02  0.51307490E-02 -0.70072520E-03
 -0.67895347E-02 -0.21732828E-02 -0.30689466E-02
  0.24333399E-02  0.32509030E-02  0.43631545E-02
  0.31521022E-03 -0.30127809E-03  0.57374807E-02
  0.71462661E-02  0.88247810E-04  0.11161775E-01
 -0.51965145E-02 -0.40502862E-02  0.25116428E-03
  0.22404088E-02 -0.55372745E-02  0.18421711E-02
 -0.68209840E-05  0.42388036E-02  0.76613682E-03
 -0.18633089E-02  0.29165050E-02  0.47295503E-02
 -0.10888048E-02  0.31673313E-02 -0.32904665E-02
  0.47535939E-02 -0.53959884E-02  0.15887290E-02
  0.49523536E-03  0.67368822E-02  0.79626649E-03
 -0.52376897E-03 -0.10836320E-02  0.62342369E-03
  0.62808264E-02 -0.13835753E-02 -0.26808678E-02
  0.16329326E-02 -0.12643259E-02  0.56160991E-02
  0.19162647E-02  0.38173525E-02  0.19726956E-02
 -0.20468489E-03 -0.21850179E-02 -0.19964010E-02
 -0.50864874E-02  0.27109352E-02  0.73536427E-03
  0.40432511E-03  0.45716158E-03  0.51896134E-02
 -0.23395843E-03 -0.34452575E-02  0.25132926E-02
 -0.25124235E-02  0.11058545E-02 -0.13367520E-02
 -0.90684362E-03  0.42972423E-02  0.85853123E-02
  0.18818554E-02  0.70897545E-02  0.40198117E-02
 -0.32167480E-02  0.41377048E-02 -0.16387758E-02
  0.13567373E-02  0.19319698E-02  0.61888445E-02
  0.19788650E-02 -0.30088742E-04  0.41420335E-03
  0.12542516E-02 -0.13724939E-02 -0.99765717E-03
  0.49387216E-02  0.17386049E-02 -0.27250248E-02
 -0.18558838E-02  0.17892920E-03 -0.52432226E-02
  0.39347671E-02  0.21573905E-02 -0.20007280E-02
 -0.12094744E-04  0.61674277E-03 -0.45043958E-02
 -0.30637101E-02 -0.89300521E-02 -0.16436637E-03
  0.36134586E-02  0.71749084E-03  0.98297257E-02
  0.80924132E-02  0.13934264E-02  0.40859038E-02
 
           1
   3.00000000000000     
  0.10000000E+01  0.00000000E+00  0.00000000E+00  0.00000000E+00
  0.39211719E+00  0.30979322E+00  0.29295255E+00
  0.54167291E+00  0.67428460E+00  0.58098594E+00
  0.83085218E+00  0.21705147E+00  0.40951317E+00
  0.12923547E+00  0.54205429E+00  0.47866877E+00
  0.73365400E+00  0.65110091E+00  0.80289454E+00
  0.84613944E+00  0.85636690E+00  0.85956242E+00
  0.31298122E+00  0.71406316E+00  0.75216286E+00
  0.25881531E+00  0.49212230E+00  0.96182710E+00
  0.39751009E+00  0.93709535E+00  0.86499881E+00
  0.47965399E+00  0.85580250E+00  0.16005234E+00
  0.91514262E+00  0.47477808E+00  0.49814408E+00
  0.70585690E-01  0.77500245E+00  0.20524702E+00
  0.33987418E+00  0.99185837E+00  0.58456916E-01
  0.11202276E+00  0.50496227E+00  0.30019803E+00
  0.56536799E+00  0.93222033E+00  0.29863301E+00
  0.23049739E+00  0.10323301E+00  0.73636055E+00
  0.41727533E+00  0.74488013E+00  0.35671183E+00
  0.26007707E-01  0.20899043E+00  0.70786731E+00
  0.44960703E+00  0.29463938E-01  0.52018779E+00
  0.54723220E+00  0.32688063E+00  0.74964098E+00
  0.55770925E+00  0.76713165E-01  0.36596770E-01
  0.43594659E+00  0.49422773E+00  0.17435678E-01
  0.98523462E+00  0.19575139E+00  0.23077745E+00
  0.39876053E-01  0.36504442E+00  0.95422628E+00
  0.78630216E+00  0.71502098E+00  0.31542642E+00
  0.13738080E+00  0.59321422E+00  0.87433244E+00
  0.79269876E+00  0.47129726E+00  0.13941958E+00
  0.69950139E+00  0.27132492E+00  0.49166405E-01
  0.76765106E+00  0.83498403E+00  0.48303877E+00
  0.73049997E+00  0.12193858E+00  0.26602691E+00
  0.36780528E+00  0.54285978E+00  0.19721120E+00
  0.64009290E-01  0.86863086E+00  0.41716576E+00
  0.57254075E+00  0.26294202E+00  0.55660287E+00
  0.21170413E+00  0.45288508E+00  0.65933837E+00
  0.56546587E-01  0.83326313E+00  0.64426108E+00
  0.99167119E+00  0.18176598E-01  0.84234844E+00
  0.13038309E+00  0.95866803E-01  0.50815975E+00
  0.74064119E+00  0.27540301E+00  0.78028787E+00
  0.94847664E+00  0.98916838E+00  0.59479279E-01
  0.74509169E+00  0.52481262E+00  0.93819747E+00
  0.76391228E+00  0.79673145E+00  0.81705829E-01
  0.73899204E+00  0.38603010E+00  0.63285685E+00
  0.12810104E+00  0.33318217E+00  0.88668450E-01
  0.39297901E+00  0.55528204E+00  0.52801577E+00
  0.21223550E+00  0.99274564E+00  0.25415400E+00
  0.63949074E+00  0.51977372E+00  0.37231494E+00
  0.56936703E+00  0.93945921E-01  0.85408481E+00
  0.98198266E+00  0.52051270E+00  0.64981903E+00
  0.00000000E+00  0.00000000E+00  0.00000000E+00
  0.00000000E+00  0.00000000E+00  0.00000000E+00
  0.00000000E+00  0.00000000E+00  0.00000000E+00
  0.00000000E+00  0.00000000E+00  0.00000000E+00
  0.00000000E+00  0.00000000E+00  0.00000000E+00
  0.00000000E+00  0.00000000E+00  0.00000000E+00
  0.00000000E+00  0.00000000E+00  0.00000000E+00
  0.00000000E+00  0.00000000E+00  0.00000000E+00
  0.00000000E+00  0.00000000E+00  0.00000000E+00
  0.00000000E+00  0.00000000E+00  0.00000000E+00
  0.00000000E+00  0.00000000E+00  0.00000000E+00
  0.00000000E+00  0.00000000E+00  0.00000000E+00
  0.00000000E+00  0.00000000E+00  0.00000000E+00
  0.00000000E+00  0.00000000E+00  0.00000000E+00
  0.00000000E+00  0.00000000E+00  0.00000000E+00
  0.00000000E+00  0.00000000E+00  0.00000000E+00
  0.00000000E+00  0.00000000E+00  0.00000000E+00
  0.00000000E+00  0.00000000E+00  0.00000000E+00
  0.00000000E+00  0.00000000E+00  0.00000000E+00
  0.00000000E+00  0.00000000E+00  0.00000000E+00
  0.00000000E+00  0.00000000E+00  0.00000000E+00
  0.00000000E+00  0.00000000E+00  0.00000000E+00
  0.00000000E+00  0.00000000E+00  0.00000000E+00
  0.00000000E+00  0.00000000E+00  0.00000000E+00
  0.00000000E+00  0.00000000E+00  0.00000000E+00
  0.00000000E+00  0.00000000E+00  0.00000000E+00
  0.00000000E+00  0.00000000E+00  0.00000000E+00
  0.00000000E+00  0.00000000E+00  0.00000000E+00
  0.00000000E+00  0.00000000E+00  0.00000000E+00
  0.00000000E+00  0.00000000E+00  0.00000000E+00
  0.00000000E+00  0.00000000E+00  0.00000000E+00
  0.00000000E+00  0.00000000E+00  0.00000000E+00
  0.00000000E+00  0.00000000E+00  0.00000000E+00
  0.00000000E+00  0.00000000E+00  0.00000000E+00
  0.00000000E+00  0.00000000E+00  0.00000000E+00
  0.00000000E+00  0.00000000E+00  0.00000000E+00
  0.00000000E+00  0.00000000E+00  0.00000000E+00
  0.00000000E+00  0.00000000E+00  0.00000000E+00
  0.00000000E+00  0.00000000E+00  0.00000000E+00
  0.00000000E+00  0.00000000E+00  0.00000000E+00
  0.00000000E+00  0.00000000E+00  0.00000000E+00
  0.00000000E+00  0.00000000E+00  0.00000000E+00
  0.00000000E+00  0.00000000E+00  0.00000000E+00
  0.00000000E+00  0.00000000E+00  0.00000000E+00
  0.00000000E+00  0.00000000E+00  0.00000000E+00
  0.00000000E+00  0.00000000E+00  0.00000000E+00
  0.00000000E+00  0.00000000E+00  0.00000000E+00
  0.00000000E+00  0.00000000E+00  0.00000000E+00
  0.00000000E+00  0.00000000E+00  0.00000000E+00
  0.00000000E+00  0.00000000E+00  0.00000000E+00
  0.00000000E+00  0.00000000E+00  0.00000000E+00
  0.00000000E+00  0.00000000E+00  0.00000000E+00
  0.00000000E+00  0.00000000E+00  0.00000000E+00
  0.00000000E+00  0.00000000E+00  0.00000000E+00
  0.00000000E+00  0.00000000E+00  0.00000000E+00
  0.00000000E+00  0.00000000E+00  0.00000000E+00
  0.00000000E+00  0.00000000E+00  0.00000000E+00
  0.00000000E+00  0.00000000E+00  0.00000000E+00
  0.00000000E+00  0.00000000E+00  0.00000000E+00
  0.00000000E+00  0.00000000E+00  0.00000000E+00
  0.00000000E+00  0.00000000E+00  0.00000000E+00
  0.00000000E+00  0.00000000E+00  0.00000000E+00
  0.00000000E+00  0.00000000E+00  0.00000000E+00
  0.00000000E+00  0.00000000E+00  0.00000000E+00
  0.00000000E+00  0.00000000E+00  0.00000000E+00
  0.00000000E+00  0.00000000E+00  0.00000000E+00
  0.00000000E+00  0.00000000E+00  0.00000000E+00
  0.00000000E+00  0.00000000E+00  0.00000000E+00
  0.00000000E+00  0.00000000E+00  0.00000000E+00
  0.00000000E+00  0.00000000E+00  0.00000000E+00
  0.00000000E+00  0.00000000E+00  0.00000000E+00
  0.00000000E+00  0.00000000E+00  0.00000000E+00
  0.00000000E+00  0.00000000E+00  0.00000000E+00
  0.00000000E+00  0.00000000E+00  0.00000000E+00
  0.00000000E+00  0.00000000E+00  0.00000000E+00
  0.00000000E+00  0.00000000E+00  0.00000000E+00
  0.00000000E+00  0.00000000E+00  0.00000000E+00
  0.00000000E+00  0.00000000E+00  0.00000000E+00
  0.00000000E+00  0.00000000E+00  0.00000000E+00
  0.00000000E+00  0.00000000E+00  0.00000000E+00
  0.00000000E+00  0.00000000E+00  0.00000000E+00
  0.00000000E+00  0.00000000E+00  0.00000000E+00
  0.00000000E+00  0.00000000E+00  0.00000000E+00
  0.00000000E+00  0.00000000E+00  0.00000000E+00
  0.00000000E+00  0.00000000E+00  0.00000000E+00
  0.00000000E+00  0.00000000E+00  0.00000000E+00
  0.00000000E+00  0.00000000E+00  0.00000000E+00
  0.00000000E+00  0.00000000E+00  0.00000000E+00
  0.00000000E+00  0.00000000E+00  0.00000000E+00
  0.00000000E+00  0.00000000E+00  0.00000000E+00
  0.00000000E+00  0.00000000E+00  0.00000000E+00
  0.00000000E+00  0.00000000E+00  0.00000000E+00
  0.00000000E+00  0.00000000E+00  0.00000000E+00
  0.00000000E+00  0.00000000E+00  0.00000000E+00
  0.00000000E+00  0.00000000E+00  0.00000000E+00
  0.00000000E+00  0.00000000E+00  0.00000000E+00
