SYSTEM = Ir_Ru
ENCUT = 220
ALGO = VeryFast
NELMIN = 4
LREAL = A
ISYM = 0
PREC = medium
EDIFF = 1E-5
MAXMIX = 60
NWRITE = 0; LCHARG = .FALSE.; LWAVE = .FALSE.
IBRION = 0
NSW = 3000
TEBEG = 3000
TEEND = 3000
NBLOCK = 1; KBLOCK = 500
NBANDS = 350
NCORE = 24
KPAR = 8
ISIF = 3
POTIM = 1.5
SMASS = 3
MDALGO = 3
ISMEAR = -1
SIGMA = 0.28
