title                                   
   1.00000000000000     
     5.9509723131595438   -0.3543239230620055   -6.6702948026603783
     3.4899287910118786    6.2732552231833063    3.5660466640361466
    10.2251114042475475   -3.4083704680820888    6.8167409361669664
   Ir
    48
Direct
  0.5076562042450981  0.0092794414544769  0.9191112730826843
  0.4073606418188467  0.4254844839917643  0.9962703916226409
  0.4763242131484751  0.6553681076795330  0.0706071420589054
  0.8626078502523943  0.2633182232373339  0.1219544429950710
  0.4523411249838096  0.2389403819814815  0.4407915981545409
  0.7643654562738504  0.5921207150872460  0.3244539861281078
  0.2401528598033168  0.0312757815466678  0.2851007685054559
  0.2430982081973636  0.9600526631538735  0.5444230278949370
  0.9813852580069982  0.1539727829226687  0.7994921939046884
  0.1566470465241435  0.2801475827906688  0.5377630406290143
  0.0644477874333245  0.7313352397121728  0.6907713437986761
  0.2749343810582432  0.7119841926720196  0.9128872619468942
  0.3813105929427688  0.1145282334007587  0.7003845274590305
  0.1648809230353888  0.4204831864461974  0.7616527084859521
  0.1327340913516577  0.4299941630232629  0.0669324524355941
  0.2053490619891434  0.7264862025388459  0.1427672540191385
  0.1633977133741779  0.9932079617797757  0.9302390654116912
  0.0559529213472436  0.2005807185484769  0.9927457327935486
  0.3033525228946403  0.0860216315643492  0.0624958191010998
  0.7162103205800392  0.1809112205417367  0.3633392284290605
  0.5556333881113369  0.4404145033096317  0.5412680028940359
  0.6566443532853306  0.6969762542311148  0.5607855482104369
  0.5000172183403719  0.9187402518568019  0.4600924003686154
  0.3408839601736220  0.7691929625143448  0.7054554012778814
  0.4926123211975568  0.4648775586283647  0.7286099275986391
  0.2962660926090958  0.6514591631506345  0.4852853738011165
  0.9401290819420298  0.0094666954744664  0.6453152591124508
  0.7211227487005387  0.1962321908061919  0.7165023017592816
  0.6240719982599749  0.1552824758426339  0.0448665310928398
  0.6470455715087058  0.3814846908493932  0.8674823754197000
  0.6408056696628207  0.7766778456978550  0.8253243685862343
  0.7450987734863314  0.8754990336250866  0.9848428359212651
  0.5450128308723634  0.2443230160912749  0.2185746451207782
  0.3139455530277877  0.3643983512575211  0.2767394673600087
  0.1039549013537020  0.6944648901306589  0.3286396690634207
  0.6585397934193702  0.9336947535427488  0.2756601107301060
  0.0175782278282648  0.9861207048511442  0.2083540195360208
  0.0244215905267986  0.1030733896548725  0.4111587913223412
  0.5042987350056964  0.6609467072922414  0.3097555344573990
  0.9950044734198948  0.7616183204405969  0.4840417522876277
  0.6323599365122066  0.0167027222096097  0.5955301263047696
  0.8754091051564981  0.3468690445512718  0.5097907679235731
  0.8981043667296373  0.4662825090343156  0.6824470334994237
  0.9201538987903207  0.7957095572980124  0.1129893088648097
  0.9251578514326672  0.7935405630552554  0.8573586308076918
  0.9045523813892669  0.4590102247814387  0.9032027668080880
  0.7600733783797682  0.5405300077297360  0.1160870253685506
  0.0059121451671096  0.3954723486588056  0.2654647683166660
Lattice velocities
 -0.78059852E-03 -0.13580529E-03  0.94315131E-03
 -0.24741021E-02 -0.24970207E-02 -0.66588208E-03
  0.77544669E-04  0.85848838E-03  0.20068903E-02
 
 -0.29267529E-02  0.24367904E-02 -0.13102257E-02
 -0.22229560E-02 -0.45068096E-02  0.26181880E-02
 -0.29144849E-02 -0.17849025E-02  0.49383102E-02
  0.39418962E-03  0.30746184E-04 -0.32043111E-03
 -0.21522323E-03 -0.48878792E-02  0.52378768E-02
  0.24608616E-02 -0.18263657E-02  0.31753545E-03
  0.55346049E-03 -0.13594463E-02  0.29152921E-02
  0.20886610E-02 -0.29227296E-02 -0.35725635E-02
  0.69258387E-02 -0.11945710E-02 -0.49486746E-02
  0.63447097E-03 -0.39369853E-02  0.11819704E-02
  0.38709077E-04 -0.16589527E-02  0.38664422E-02
  0.23605477E-02 -0.94012144E-03 -0.17505141E-02
 -0.57344326E-03 -0.25041214E-02 -0.86412790E-02
  0.30084254E-02  0.54448987E-02 -0.12883706E-02
  0.42223362E-02 -0.17120554E-02 -0.15745039E-02
  0.29622900E-02 -0.40783715E-02  0.23448777E-02
 -0.20907565E-02  0.15834083E-02 -0.10026743E-02
 -0.15189670E-02  0.28103499E-02 -0.83630113E-03
  0.31856342E-03  0.58961072E-02  0.12823028E-02
  0.34861578E-02  0.39490146E-02 -0.30720763E-02
  0.25059343E-02  0.58984868E-02  0.33123357E-02
 -0.30971316E-02  0.58961997E-03  0.23706125E-03
 -0.27922529E-02  0.29674354E-02 -0.92660543E-03
  0.55169433E-02 -0.56185774E-03  0.72439800E-02
  0.55761222E-03  0.10556505E-02 -0.13880870E-02
  0.75096742E-03 -0.81308696E-03 -0.14885814E-02
 -0.19137087E-02  0.55705334E-02 -0.43202096E-02
  0.18635411E-02  0.27319290E-02 -0.89436522E-02
 -0.13998948E-02 -0.23425745E-02  0.15959602E-02
  0.23790935E-02 -0.13877816E-02 -0.57917434E-02
 -0.26150812E-02  0.20258011E-02  0.34399378E-03
  0.37277205E-02 -0.39277492E-02 -0.15856334E-02
  0.25588960E-02 -0.28303296E-02  0.46231055E-03
  0.99842284E-02  0.16875546E-02  0.30228677E-02
  0.42273847E-02 -0.54743214E-03  0.30367042E-02
  0.49925131E-03 -0.17159640E-02  0.54387250E-02
 -0.24176886E-02  0.38762342E-02 -0.46085556E-02
  0.59410745E-02 -0.23626572E-02  0.15512955E-02
  0.49177218E-02  0.10373503E-02 -0.21415102E-03
 -0.13039562E-02  0.18054527E-02  0.25979732E-02
  0.15302188E-02  0.36463469E-02 -0.10606922E-02
  0.17837139E-02  0.57504265E-02  0.35496214E-03
 -0.20734964E-02  0.27798351E-02  0.35009571E-02
  0.26524038E-02  0.16741519E-02 -0.49822341E-03
 -0.14507433E-03  0.55589102E-02  0.69565151E-02
 -0.18744757E-02  0.57296689E-02 -0.53682403E-03
  0.19832692E-02 -0.12493013E-02  0.38254552E-02
  0.19444000E-02 -0.21479780E-02  0.40301499E-02
 
           1
   3.00000000000000     
  0.10000000E+01  0.00000000E+00  0.00000000E+00  0.00000000E+00
  0.50765620E+00  0.92794415E-02  0.91911127E+00
  0.40736064E+00  0.42548448E+00  0.99627039E+00
  0.47632421E+00  0.65536811E+00  0.70607142E-01
  0.86260785E+00  0.26331822E+00  0.12195444E+00
  0.45234112E+00  0.23894038E+00  0.44079160E+00
  0.76436546E+00  0.59212072E+00  0.32445399E+00
  0.24015286E+00  0.31275782E-01  0.28510077E+00
  0.24309821E+00  0.96005266E+00  0.54442303E+00
  0.98138526E+00  0.15397278E+00  0.79949219E+00
  0.15664705E+00  0.28014758E+00  0.53776304E+00
  0.64447787E-01  0.73133524E+00  0.69077134E+00
  0.27493438E+00  0.71198419E+00  0.91288726E+00
  0.38131059E+00  0.11452823E+00  0.70038453E+00
  0.16488092E+00  0.42048319E+00  0.76165271E+00
  0.13273409E+00  0.42999416E+00  0.66932452E-01
  0.20534906E+00  0.72648620E+00  0.14276725E+00
  0.16339771E+00  0.99320796E+00  0.93023907E+00
  0.55952921E-01  0.20058072E+00  0.99274573E+00
  0.30335252E+00  0.86021632E-01  0.62495819E-01
  0.71621032E+00  0.18091122E+00  0.36333923E+00
  0.55563339E+00  0.44041450E+00  0.54126800E+00
  0.65664435E+00  0.69697625E+00  0.56078555E+00
  0.50001722E+00  0.91874025E+00  0.46009240E+00
  0.34088396E+00  0.76919296E+00  0.70545540E+00
  0.49261232E+00  0.46487756E+00  0.72860993E+00
  0.29626609E+00  0.65145916E+00  0.48528537E+00
  0.94012908E+00  0.94666955E-02  0.64531526E+00
  0.72112275E+00  0.19623219E+00  0.71650230E+00
  0.62407200E+00  0.15528248E+00  0.44866531E-01
  0.64704557E+00  0.38148469E+00  0.86748238E+00
  0.64080567E+00  0.77667785E+00  0.82532437E+00
  0.74509877E+00  0.87549903E+00  0.98484284E+00
  0.54501283E+00  0.24432302E+00  0.21857465E+00
  0.31394555E+00  0.36439835E+00  0.27673947E+00
  0.10395490E+00  0.69446489E+00  0.32863967E+00
  0.65853979E+00  0.93369475E+00  0.27566011E+00
  0.17578228E-01  0.98612070E+00  0.20835402E+00
  0.24421591E-01  0.10307339E+00  0.41115879E+00
  0.50429874E+00  0.66094671E+00  0.30975553E+00
  0.99500447E+00  0.76161832E+00  0.48404175E+00
  0.63235994E+00  0.16702722E-01  0.59553013E+00
  0.87540911E+00  0.34686904E+00  0.50979077E+00
  0.89810437E+00  0.46628251E+00  0.68244703E+00
  0.92015390E+00  0.79570956E+00  0.11298931E+00
  0.92515785E+00  0.79354056E+00  0.85735863E+00
  0.90455238E+00  0.45901022E+00  0.90320277E+00
  0.76007338E+00  0.54053001E+00  0.11608703E+00
  0.59121452E-02  0.39547235E+00  0.26546477E+00
  0.00000000E+00  0.00000000E+00  0.00000000E+00
  0.00000000E+00  0.00000000E+00  0.00000000E+00
  0.00000000E+00  0.00000000E+00  0.00000000E+00
  0.00000000E+00  0.00000000E+00  0.00000000E+00
  0.00000000E+00  0.00000000E+00  0.00000000E+00
  0.00000000E+00  0.00000000E+00  0.00000000E+00
  0.00000000E+00  0.00000000E+00  0.00000000E+00
  0.00000000E+00  0.00000000E+00  0.00000000E+00
  0.00000000E+00  0.00000000E+00  0.00000000E+00
  0.00000000E+00  0.00000000E+00  0.00000000E+00
  0.00000000E+00  0.00000000E+00  0.00000000E+00
  0.00000000E+00  0.00000000E+00  0.00000000E+00
  0.00000000E+00  0.00000000E+00  0.00000000E+00
  0.00000000E+00  0.00000000E+00  0.00000000E+00
  0.00000000E+00  0.00000000E+00  0.00000000E+00
  0.00000000E+00  0.00000000E+00  0.00000000E+00
  0.00000000E+00  0.00000000E+00  0.00000000E+00
  0.00000000E+00  0.00000000E+00  0.00000000E+00
  0.00000000E+00  0.00000000E+00  0.00000000E+00
  0.00000000E+00  0.00000000E+00  0.00000000E+00
  0.00000000E+00  0.00000000E+00  0.00000000E+00
  0.00000000E+00  0.00000000E+00  0.00000000E+00
  0.00000000E+00  0.00000000E+00  0.00000000E+00
  0.00000000E+00  0.00000000E+00  0.00000000E+00
  0.00000000E+00  0.00000000E+00  0.00000000E+00
  0.00000000E+00  0.00000000E+00  0.00000000E+00
  0.00000000E+00  0.00000000E+00  0.00000000E+00
  0.00000000E+00  0.00000000E+00  0.00000000E+00
  0.00000000E+00  0.00000000E+00  0.00000000E+00
  0.00000000E+00  0.00000000E+00  0.00000000E+00
  0.00000000E+00  0.00000000E+00  0.00000000E+00
  0.00000000E+00  0.00000000E+00  0.00000000E+00
  0.00000000E+00  0.00000000E+00  0.00000000E+00
  0.00000000E+00  0.00000000E+00  0.00000000E+00
  0.00000000E+00  0.00000000E+00  0.00000000E+00
  0.00000000E+00  0.00000000E+00  0.00000000E+00
  0.00000000E+00  0.00000000E+00  0.00000000E+00
  0.00000000E+00  0.00000000E+00  0.00000000E+00
  0.00000000E+00  0.00000000E+00  0.00000000E+00
  0.00000000E+00  0.00000000E+00  0.00000000E+00
  0.00000000E+00  0.00000000E+00  0.00000000E+00
  0.00000000E+00  0.00000000E+00  0.00000000E+00
  0.00000000E+00  0.00000000E+00  0.00000000E+00
  0.00000000E+00  0.00000000E+00  0.00000000E+00
  0.00000000E+00  0.00000000E+00  0.00000000E+00
  0.00000000E+00  0.00000000E+00  0.00000000E+00
  0.00000000E+00  0.00000000E+00  0.00000000E+00
  0.00000000E+00  0.00000000E+00  0.00000000E+00
  0.00000000E+00  0.00000000E+00  0.00000000E+00
  0.00000000E+00  0.00000000E+00  0.00000000E+00
  0.00000000E+00  0.00000000E+00  0.00000000E+00
  0.00000000E+00  0.00000000E+00  0.00000000E+00
  0.00000000E+00  0.00000000E+00  0.00000000E+00
  0.00000000E+00  0.00000000E+00  0.00000000E+00
  0.00000000E+00  0.00000000E+00  0.00000000E+00
  0.00000000E+00  0.00000000E+00  0.00000000E+00
  0.00000000E+00  0.00000000E+00  0.00000000E+00
  0.00000000E+00  0.00000000E+00  0.00000000E+00
  0.00000000E+00  0.00000000E+00  0.00000000E+00
  0.00000000E+00  0.00000000E+00  0.00000000E+00
  0.00000000E+00  0.00000000E+00  0.00000000E+00
  0.00000000E+00  0.00000000E+00  0.00000000E+00
  0.00000000E+00  0.00000000E+00  0.00000000E+00
  0.00000000E+00  0.00000000E+00  0.00000000E+00
  0.00000000E+00  0.00000000E+00  0.00000000E+00
  0.00000000E+00  0.00000000E+00  0.00000000E+00
  0.00000000E+00  0.00000000E+00  0.00000000E+00
  0.00000000E+00  0.00000000E+00  0.00000000E+00
  0.00000000E+00  0.00000000E+00  0.00000000E+00
  0.00000000E+00  0.00000000E+00  0.00000000E+00
  0.00000000E+00  0.00000000E+00  0.00000000E+00
  0.00000000E+00  0.00000000E+00  0.00000000E+00
  0.00000000E+00  0.00000000E+00  0.00000000E+00
  0.00000000E+00  0.00000000E+00  0.00000000E+00
  0.00000000E+00  0.00000000E+00  0.00000000E+00
  0.00000000E+00  0.00000000E+00  0.00000000E+00
  0.00000000E+00  0.00000000E+00  0.00000000E+00
  0.00000000E+00  0.00000000E+00  0.00000000E+00
  0.00000000E+00  0.00000000E+00  0.00000000E+00
  0.00000000E+00  0.00000000E+00  0.00000000E+00
  0.00000000E+00  0.00000000E+00  0.00000000E+00
  0.00000000E+00  0.00000000E+00  0.00000000E+00
  0.00000000E+00  0.00000000E+00  0.00000000E+00
  0.00000000E+00  0.00000000E+00  0.00000000E+00
  0.00000000E+00  0.00000000E+00  0.00000000E+00
  0.00000000E+00  0.00000000E+00  0.00000000E+00
  0.00000000E+00  0.00000000E+00  0.00000000E+00
  0.00000000E+00  0.00000000E+00  0.00000000E+00
  0.00000000E+00  0.00000000E+00  0.00000000E+00
  0.00000000E+00  0.00000000E+00  0.00000000E+00
  0.00000000E+00  0.00000000E+00  0.00000000E+00
  0.00000000E+00  0.00000000E+00  0.00000000E+00
  0.00000000E+00  0.00000000E+00  0.00000000E+00
  0.00000000E+00  0.00000000E+00  0.00000000E+00
  0.00000000E+00  0.00000000E+00  0.00000000E+00
  0.00000000E+00  0.00000000E+00  0.00000000E+00
