title                                   
   1.00000000000000     
     4.6910812210888970    1.4077918767624698   -5.1713476812074166
     5.1647290954005411    7.8208601502606321    5.0335588161660283
     9.9096016697043474   -3.3032005565681897    6.6064011131362204
   Ir
    48
Direct
  0.8777422475262501  0.0294414195059408  0.0556673987891650
  0.1555066162704734  0.4058353338146990  0.9788139924101246
  0.3434900573060101  0.6384102377596056  0.0291218309913020
  0.2478777362958698  0.8497809327644172  0.1188304129601834
  0.1525740107616955  0.0865921522791416  0.1584772057622510
  0.2269687981555445  0.3963600007977631  0.2471266966281307
  0.1745165199028133  0.5394147985581075  0.3966050779394868
  0.0636646373480038  0.7945820456315594  0.3744817988641395
  0.1538339054281799  0.0346494816439746  0.4327891609445561
  0.3602724821893544  0.2839429358036257  0.4463394582780523
  0.2284004494502828  0.2711889794755309  0.6922854391612128
  0.1414820483684513  0.5746206512593799  0.6145717294413449
  0.0451808329502857  0.8184848932670117  0.6429931158729838
  0.0440208227786255  0.0738312551360217  0.8069835866056367
  0.8872393662814461  0.3026290113135111  0.8584307088718774
  0.9919493378057395  0.5783347191535759  0.7851026614058574
  0.0191612201539941  0.8035281160019700  0.9696438123000594
  0.6299088658261732  0.7383599702772085  0.0584348389264253
  0.5154655394936360  0.9775458693461377  0.1137556180591624
  0.4426220654015512  0.2206158518592924  0.1711594379811383
  0.5716460005339353  0.4468176464235042  0.1844779899682174
  0.4839099711739825  0.6232446757454435  0.2779904151740381
  0.4240185484832171  0.8951915031602899  0.3424250032214583
  0.5351151211768640  0.0545453385995832  0.4270164447515051
  0.6577171715396467  0.2598245578685493  0.4849640112948888
  0.5020863429139197  0.5194743243920336  0.5087038597806196
  0.4051142142554933  0.7274165292823384  0.6003901731761409
  0.3709630836400872  0.9518344493203523  0.6685125473451407
  0.5845120231858537  0.2526997050982975  0.7134695276966851
  0.3643267505437976  0.4276296140360877  0.7813402876271525
  0.2518641961671284  0.7003501346564206  0.8264244039713233
  0.3643120731370497  0.9714763415029377  0.8645644864934132
  0.2310090359875474  0.1930410756054130  0.9238789421812702
  0.8200774714741662  0.2562950640553978  0.0971591072691659
  0.9081893763917732  0.5427055828009557  0.1109016501655830
  0.8964916474520267  0.7452511057222017  0.1894930727889342
  0.8041575730472130  0.9960271219171765  0.2642108861740234
  0.8633539817307332  0.2160677319144897  0.3382909367536657
  0.8666443361327566  0.4591359634840060  0.3626631671739803
  0.7469215954907019  0.7044788748286568  0.4522311050555071
  0.7280561703832062  0.8616934884317212  0.5658299552997256
  0.9334293548082625  0.0801693839297288  0.5647486292187164
  0.8806463914862793  0.3821085474356989  0.5819350593093993
  0.6929024471812462  0.5357205384628966  0.7162861353329868
  0.6272564235684117  0.7356889163097921  0.7976943057742137
  0.7309241996952924  0.9227970970317740  0.8393221205828000
  0.5898204957983401  0.2245473932708416  0.9710728473725198
  0.5638137716323700  0.4726440699816763  0.9511817798003119
Lattice velocities
 -0.24871510E-02 -0.25205823E-02  0.41123853E-02
 -0.61076890E-03  0.86710117E-03  0.19184925E-03
  0.19049887E-03 -0.85320381E-03  0.19454073E-02
 
 -0.27305865E-02  0.48519750E-02 -0.56254765E-03
 -0.32375297E-02  0.42432118E-02  0.31783699E-02
  0.18370570E-02 -0.39486111E-02 -0.24156092E-02
 -0.13958986E-02  0.27122382E-03 -0.14495806E-03
 -0.28722685E-02  0.25107473E-03  0.30142665E-02
  0.33774773E-02  0.24599797E-02  0.56383980E-02
 -0.35144615E-02 -0.10517711E-01  0.53638724E-03
 -0.22851095E-02 -0.50197803E-03  0.71642827E-02
 -0.20868435E-02  0.38976534E-02 -0.15842219E-02
  0.75587131E-02  0.21992006E-02 -0.74409886E-02
  0.56637764E-02 -0.12012717E-02  0.37085075E-02
 -0.33723757E-03 -0.17189789E-02  0.48257055E-02
  0.90710495E-04 -0.23616961E-02 -0.26382305E-02
 -0.31097829E-02  0.93847446E-03  0.58280146E-02
  0.10768000E-02 -0.33086972E-02 -0.60003891E-03
  0.21439319E-02  0.84553443E-02  0.40039822E-02
  0.63027118E-03  0.41054475E-02  0.28545390E-02
  0.58903520E-04  0.66427593E-03 -0.19750621E-03
 -0.63412491E-02  0.21361770E-02 -0.43008466E-02
  0.46418662E-02 -0.56913575E-03  0.32400061E-02
  0.13302497E-02  0.45481703E-02  0.53687519E-02
  0.90759144E-03 -0.25105066E-03 -0.84026978E-02
  0.48115462E-02  0.11609441E-02 -0.96627861E-03
 -0.36664689E-02 -0.55409020E-02  0.39857858E-02
  0.98036080E-03  0.96456671E-03  0.25826703E-03
 -0.73569274E-02  0.22275966E-02  0.17743368E-02
 -0.13125547E-02  0.44452737E-02  0.96453248E-03
 -0.13773464E-02 -0.35566315E-02  0.23227764E-02
  0.23622872E-02  0.98252582E-03  0.50324004E-02
  0.51500499E-02  0.38159721E-02 -0.26640180E-02
  0.91212894E-03  0.31123314E-02 -0.70717771E-03
  0.48411337E-02 -0.19073688E-03  0.27367942E-02
  0.25992227E-02  0.41528146E-02  0.45023052E-02
  0.53872202E-02  0.56475073E-02  0.48555516E-03
 -0.52544650E-02 -0.37725298E-02 -0.33086703E-02
 -0.15052757E-02  0.48897791E-03  0.55786726E-03
  0.39329670E-02 -0.43451051E-02  0.36741809E-02
 -0.90397199E-03 -0.18400095E-02  0.18600424E-02
 -0.35324915E-02 -0.64243705E-03 -0.11385373E-02
 -0.25182357E-02 -0.70061686E-02  0.54632177E-02
  0.10474893E-02 -0.36179184E-02 -0.50667985E-02
 -0.17968367E-02  0.51296242E-03  0.34551553E-02
  0.21317266E-02  0.19192499E-02 -0.30548228E-03
 -0.61023217E-03  0.17148345E-02 -0.85851684E-03
  0.27188537E-02 -0.47984481E-02  0.27774911E-02
 -0.31613952E-02 -0.27418380E-03 -0.32043796E-02
  0.37859044E-02  0.14581375E-02 -0.12114348E-02
  0.21143309E-02  0.41230149E-02  0.43997825E-02
 
           1
   1.50000000000000     
  0.10000000E+01  0.00000000E+00  0.00000000E+00  0.00000000E+00
  0.87774225E+00  0.29441420E-01  0.55667399E-01
  0.15550662E+00  0.40583533E+00  0.97881399E+00
  0.34349006E+00  0.63841024E+00  0.29121831E-01
  0.24787774E+00  0.84978093E+00  0.11883041E+00
  0.15257401E+00  0.86592152E-01  0.15847721E+00
  0.22696880E+00  0.39636000E+00  0.24712670E+00
  0.17451652E+00  0.53941480E+00  0.39660508E+00
  0.63664637E-01  0.79458205E+00  0.37448180E+00
  0.15383391E+00  0.34649482E-01  0.43278916E+00
  0.36027248E+00  0.28394294E+00  0.44633946E+00
  0.22840045E+00  0.27118898E+00  0.69228544E+00
  0.14148205E+00  0.57462065E+00  0.61457173E+00
  0.45180833E-01  0.81848489E+00  0.64299312E+00
  0.44020823E-01  0.73831255E-01  0.80698359E+00
  0.88723937E+00  0.30262901E+00  0.85843071E+00
  0.99194934E+00  0.57833472E+00  0.78510266E+00
  0.19161220E-01  0.80352812E+00  0.96964381E+00
  0.62990887E+00  0.73835997E+00  0.58434839E-01
  0.51546554E+00  0.97754587E+00  0.11375562E+00
  0.44262207E+00  0.22061585E+00  0.17115944E+00
  0.57164600E+00  0.44681765E+00  0.18447799E+00
  0.48390997E+00  0.62324468E+00  0.27799042E+00
  0.42401855E+00  0.89519150E+00  0.34242500E+00
  0.53511512E+00  0.54545339E-01  0.42701644E+00
  0.65771717E+00  0.25982456E+00  0.48496401E+00
  0.50208634E+00  0.51947432E+00  0.50870386E+00
  0.40511421E+00  0.72741653E+00  0.60039017E+00
  0.37096308E+00  0.95183445E+00  0.66851255E+00
  0.58451202E+00  0.25269971E+00  0.71346953E+00
  0.36432675E+00  0.42762961E+00  0.78134029E+00
  0.25186420E+00  0.70035013E+00  0.82642440E+00
  0.36431207E+00  0.97147634E+00  0.86456449E+00
  0.23100904E+00  0.19304108E+00  0.92387894E+00
  0.82007747E+00  0.25629506E+00  0.97159107E-01
  0.90818938E+00  0.54270558E+00  0.11090165E+00
  0.89649165E+00  0.74525111E+00  0.18949307E+00
  0.80415757E+00  0.99602712E+00  0.26421089E+00
  0.86335398E+00  0.21606773E+00  0.33829094E+00
  0.86664434E+00  0.45913596E+00  0.36266317E+00
  0.74692160E+00  0.70447887E+00  0.45223111E+00
  0.72805617E+00  0.86169349E+00  0.56582996E+00
  0.93342935E+00  0.80169384E-01  0.56474863E+00
  0.88064639E+00  0.38210855E+00  0.58193506E+00
  0.69290245E+00  0.53572054E+00  0.71628614E+00
  0.62725642E+00  0.73568892E+00  0.79769431E+00
  0.73092420E+00  0.92279710E+00  0.83932212E+00
  0.58982050E+00  0.22454739E+00  0.97107285E+00
  0.56381377E+00  0.47264407E+00  0.95118178E+00
  0.00000000E+00  0.00000000E+00  0.00000000E+00
  0.00000000E+00  0.00000000E+00  0.00000000E+00
  0.00000000E+00  0.00000000E+00  0.00000000E+00
  0.00000000E+00  0.00000000E+00  0.00000000E+00
  0.00000000E+00  0.00000000E+00  0.00000000E+00
  0.00000000E+00  0.00000000E+00  0.00000000E+00
  0.00000000E+00  0.00000000E+00  0.00000000E+00
  0.00000000E+00  0.00000000E+00  0.00000000E+00
  0.00000000E+00  0.00000000E+00  0.00000000E+00
  0.00000000E+00  0.00000000E+00  0.00000000E+00
  0.00000000E+00  0.00000000E+00  0.00000000E+00
  0.00000000E+00  0.00000000E+00  0.00000000E+00
  0.00000000E+00  0.00000000E+00  0.00000000E+00
  0.00000000E+00  0.00000000E+00  0.00000000E+00
  0.00000000E+00  0.00000000E+00  0.00000000E+00
  0.00000000E+00  0.00000000E+00  0.00000000E+00
  0.00000000E+00  0.00000000E+00  0.00000000E+00
  0.00000000E+00  0.00000000E+00  0.00000000E+00
  0.00000000E+00  0.00000000E+00  0.00000000E+00
  0.00000000E+00  0.00000000E+00  0.00000000E+00
  0.00000000E+00  0.00000000E+00  0.00000000E+00
  0.00000000E+00  0.00000000E+00  0.00000000E+00
  0.00000000E+00  0.00000000E+00  0.00000000E+00
  0.00000000E+00  0.00000000E+00  0.00000000E+00
  0.00000000E+00  0.00000000E+00  0.00000000E+00
  0.00000000E+00  0.00000000E+00  0.00000000E+00
  0.00000000E+00  0.00000000E+00  0.00000000E+00
  0.00000000E+00  0.00000000E+00  0.00000000E+00
  0.00000000E+00  0.00000000E+00  0.00000000E+00
  0.00000000E+00  0.00000000E+00  0.00000000E+00
  0.00000000E+00  0.00000000E+00  0.00000000E+00
  0.00000000E+00  0.00000000E+00  0.00000000E+00
  0.00000000E+00  0.00000000E+00  0.00000000E+00
  0.00000000E+00  0.00000000E+00  0.00000000E+00
  0.00000000E+00  0.00000000E+00  0.00000000E+00
  0.00000000E+00  0.00000000E+00  0.00000000E+00
  0.00000000E+00  0.00000000E+00  0.00000000E+00
  0.00000000E+00  0.00000000E+00  0.00000000E+00
  0.00000000E+00  0.00000000E+00  0.00000000E+00
  0.00000000E+00  0.00000000E+00  0.00000000E+00
  0.00000000E+00  0.00000000E+00  0.00000000E+00
  0.00000000E+00  0.00000000E+00  0.00000000E+00
  0.00000000E+00  0.00000000E+00  0.00000000E+00
  0.00000000E+00  0.00000000E+00  0.00000000E+00
  0.00000000E+00  0.00000000E+00  0.00000000E+00
  0.00000000E+00  0.00000000E+00  0.00000000E+00
  0.00000000E+00  0.00000000E+00  0.00000000E+00
  0.00000000E+00  0.00000000E+00  0.00000000E+00
  0.00000000E+00  0.00000000E+00  0.00000000E+00
  0.00000000E+00  0.00000000E+00  0.00000000E+00
  0.00000000E+00  0.00000000E+00  0.00000000E+00
  0.00000000E+00  0.00000000E+00  0.00000000E+00
  0.00000000E+00  0.00000000E+00  0.00000000E+00
  0.00000000E+00  0.00000000E+00  0.00000000E+00
  0.00000000E+00  0.00000000E+00  0.00000000E+00
  0.00000000E+00  0.00000000E+00  0.00000000E+00
  0.00000000E+00  0.00000000E+00  0.00000000E+00
  0.00000000E+00  0.00000000E+00  0.00000000E+00
  0.00000000E+00  0.00000000E+00  0.00000000E+00
  0.00000000E+00  0.00000000E+00  0.00000000E+00
  0.00000000E+00  0.00000000E+00  0.00000000E+00
  0.00000000E+00  0.00000000E+00  0.00000000E+00
  0.00000000E+00  0.00000000E+00  0.00000000E+00
  0.00000000E+00  0.00000000E+00  0.00000000E+00
  0.00000000E+00  0.00000000E+00  0.00000000E+00
  0.00000000E+00  0.00000000E+00  0.00000000E+00
  0.00000000E+00  0.00000000E+00  0.00000000E+00
  0.00000000E+00  0.00000000E+00  0.00000000E+00
  0.00000000E+00  0.00000000E+00  0.00000000E+00
  0.00000000E+00  0.00000000E+00  0.00000000E+00
  0.00000000E+00  0.00000000E+00  0.00000000E+00
  0.00000000E+00  0.00000000E+00  0.00000000E+00
  0.00000000E+00  0.00000000E+00  0.00000000E+00
  0.00000000E+00  0.00000000E+00  0.00000000E+00
  0.00000000E+00  0.00000000E+00  0.00000000E+00
  0.00000000E+00  0.00000000E+00  0.00000000E+00
  0.00000000E+00  0.00000000E+00  0.00000000E+00
  0.00000000E+00  0.00000000E+00  0.00000000E+00
  0.00000000E+00  0.00000000E+00  0.00000000E+00
  0.00000000E+00  0.00000000E+00  0.00000000E+00
  0.00000000E+00  0.00000000E+00  0.00000000E+00
  0.00000000E+00  0.00000000E+00  0.00000000E+00
  0.00000000E+00  0.00000000E+00  0.00000000E+00
  0.00000000E+00  0.00000000E+00  0.00000000E+00
  0.00000000E+00  0.00000000E+00  0.00000000E+00
  0.00000000E+00  0.00000000E+00  0.00000000E+00
  0.00000000E+00  0.00000000E+00  0.00000000E+00
  0.00000000E+00  0.00000000E+00  0.00000000E+00
  0.00000000E+00  0.00000000E+00  0.00000000E+00
  0.00000000E+00  0.00000000E+00  0.00000000E+00
  0.00000000E+00  0.00000000E+00  0.00000000E+00
  0.00000000E+00  0.00000000E+00  0.00000000E+00
  0.00000000E+00  0.00000000E+00  0.00000000E+00
  0.00000000E+00  0.00000000E+00  0.00000000E+00
  0.00000000E+00  0.00000000E+00  0.00000000E+00
  0.00000000E+00  0.00000000E+00  0.00000000E+00
