title                                   
   1.00000000000000     
     4.8564975761896063    1.5879476919505391   -5.3183276640211252
     5.8027914334650585    7.4462506762693996    5.4319467035473252
     9.6007302407715578   -3.2002434135904103    6.4004868271808828
   Ir
    48
Direct
  0.7985720522881045  0.1198955145474424  0.0270251766729677
  0.3743205317781524  0.4897570262073327  0.0571005836236489
  0.1090368083633266  0.6747845573875859  0.0944255118742405
  0.0498956271875890  0.9392365142407045  0.1751552568767769
  0.9235066534786549  0.1395113613377165  0.2183581487740466
  0.1723369164138796  0.3642374562344260  0.2490804543275032
  0.1031433579206602  0.5578142845266013  0.3415752157573941
  0.9098084450114712  0.7540880534247322  0.4272023558885745
  0.1195884653286433  0.0958402881687145  0.4117737996276032
  0.1265918963038494  0.2478982781622703  0.5040456493209970
  0.2770989022232806  0.3476575193226825  0.6963304442809010
  0.1110669873657694  0.5857484200429469  0.6971958955429485
  0.2846610312427488  0.8159959206573533  0.6791841400837848
  0.9340217103326813  0.2057027241031142  0.7709341892111897
  0.0013754278711757  0.3266086864746950  0.9183908567803742
  0.8841230499012308  0.6159053945379955  0.8494093103631148
  0.8461233935249055  0.9701176173124992  0.8616846923208537
  0.4479687143365637  0.8981364912367944  0.9567462566272712
  0.4060179596963544  0.9853351520065826  0.1536318690518120
  0.3847644071025556  0.1222740128254682  0.2906509817778146
  0.5518884588750357  0.4204520906914534  0.2665366688544113
  0.3953984849683608  0.7165426840699053  0.2011833715874389
  0.2553420650023240  0.8758164411144500  0.3639657750953535
  0.3997975860365557  0.0623147110700193  0.5385270711040372
  0.4383436516953804  0.3920248435927380  0.4955528773130723
  0.3275624695801009  0.6291227023706446  0.5142612584430586
  0.5846020751928073  0.7417060638116858  0.5947961865637188
  0.1528379095379327  0.9719613675007244  0.7680015160988163
  0.6018459471953531  0.2635149032191400  0.8052239822966485
  0.4216249255245963  0.5392569588479489  0.8229641366081322
  0.1455009765242851  0.7262352189833940  0.8755099305154741
  0.1651218425871425  0.1002630596417133  0.9529141100673343
  0.3598036787313346  0.2865007834948167  0.0124004854829143
  0.0050851847707316  0.4409994330733110  0.0646251545536831
  0.6843825622716696  0.6636738828190090  0.1068704694938274
  0.7705020818589468  0.8373740139674181  0.1625037236731181
  0.6605347055693018  0.9479171991003258  0.2898430270043256
  0.6952522705733176  0.0593388804303610  0.4250963435677625
  0.8655875419865451  0.2977219358180138  0.3195712560951037
  0.6812307390646234  0.6019029557239356  0.4637995712194460
  0.9244378232329825  0.8492302468739044  0.5779190597614500
  0.8760956369237759  0.0928504236604813  0.5986146279848010
  0.9878345868027476  0.4882776521711565  0.5712184756001832
  0.7420600077592610  0.4885437081464180  0.7546733152869305
  0.6512285510678584  0.8995184912398027  0.6919707933402427
  0.4788363722877814  0.0936964507674116  0.7389827754134416
  0.7006564305704817  0.3558338937882361  0.0531520520017617
  0.5352039523000135  0.7030290533265573  0.8930735943105274
Lattice velocities
  0.80900920E-03  0.37310009E-03  0.16499526E-03
  0.90014335E-03  0.16133346E-02 -0.30345914E-03
 -0.78097230E-03 -0.98897431E-03  0.25642843E-02
 
 -0.13028151E-02  0.41847918E-02  0.17179174E-02
  0.10528565E-02 -0.19256263E-02 -0.31402041E-02
  0.46131486E-03 -0.83751456E-03 -0.20575809E-02
 -0.27443171E-02  0.25385167E-02  0.31016677E-02
  0.98131244E-03  0.16176254E-02 -0.22134309E-02
  0.45509457E-03  0.16286472E-02  0.46616979E-02
 -0.24008147E-02 -0.29072557E-02  0.32720832E-02
  0.20682434E-02 -0.20562994E-02 -0.22053808E-02
 -0.12713117E-03 -0.44363478E-03 -0.71121408E-02
  0.71413027E-03  0.40037941E-02  0.81978964E-02
 -0.44675653E-03 -0.46121099E-02 -0.14822126E-02
  0.91777548E-03 -0.21065314E-02 -0.25605699E-02
  0.34552493E-02  0.15376264E-02  0.15201428E-02
 -0.19684504E-02 -0.12813171E-02  0.31136760E-02
 -0.25247822E-03 -0.26639518E-03  0.79493306E-03
  0.18072293E-02 -0.26079837E-02 -0.26802066E-03
  0.34761034E-02  0.31033297E-02  0.57642533E-02
 -0.12880500E-02 -0.19762508E-02 -0.61454696E-02
 -0.28339055E-02 -0.47458596E-03  0.10245434E-02
  0.49397844E-02  0.17213463E-02  0.54506789E-03
 -0.22709799E-02 -0.17147703E-02 -0.56700675E-03
 -0.17692511E-05  0.48413017E-02  0.37273637E-02
 -0.53794596E-02 -0.41053664E-02 -0.72353612E-02
 -0.17881323E-02 -0.40134756E-02  0.21540011E-02
  0.69654491E-02 -0.38273859E-02  0.56357663E-02
 -0.34796591E-02  0.25001635E-03  0.16091561E-02
  0.34675561E-02  0.59249577E-03  0.16781634E-02
 -0.96794602E-04  0.12873052E-02  0.19028025E-02
  0.33203962E-02 -0.10015041E-02  0.93772692E-03
  0.42012584E-02  0.27211591E-02 -0.15424779E-02
 -0.28454518E-02 -0.49136158E-03  0.60695058E-03
  0.56971893E-02 -0.23961456E-02 -0.20111551E-02
 -0.17408600E-02  0.23626013E-02  0.39970351E-02
  0.12460365E-02  0.20744639E-02  0.59599436E-02
  0.32174211E-02 -0.43663286E-02  0.19337298E-03
 -0.22076848E-02  0.10894596E-02  0.12092568E-02
 -0.24502541E-02  0.16365000E-02  0.27006021E-02
  0.57020740E-03  0.10630625E-02  0.44700584E-02
  0.19351606E-02  0.71867551E-03 -0.13023742E-02
  0.36122997E-02  0.41904468E-02 -0.16716186E-02
  0.12029247E-02  0.18435229E-02  0.74139023E-02
  0.38683568E-02 -0.54206481E-02  0.53472541E-02
 -0.10851584E-02  0.33393854E-02  0.56484450E-02
 -0.34778156E-02 -0.42529133E-02 -0.38485194E-02
 -0.34410422E-02  0.54760011E-02 -0.52257359E-02
 -0.15508995E-02  0.11964379E-02  0.35599231E-02
  0.12327185E-03  0.29110338E-02 -0.25873127E-02
 -0.27439054E-02  0.82192894E-02  0.60344885E-02
 
           1
   1.50000000000000     
  0.10000000E+01  0.00000000E+00  0.00000000E+00  0.00000000E+00
  0.79857205E+00  0.11989551E+00  0.27025177E-01
  0.37432053E+00  0.48975703E+00  0.57100584E-01
  0.10903681E+00  0.67478456E+00  0.94425512E-01
  0.49895627E-01  0.93923651E+00  0.17515526E+00
  0.92350665E+00  0.13951136E+00  0.21835815E+00
  0.17233692E+00  0.36423746E+00  0.24908045E+00
  0.10314336E+00  0.55781428E+00  0.34157522E+00
  0.90980845E+00  0.75408805E+00  0.42720236E+00
  0.11958847E+00  0.95840288E-01  0.41177380E+00
  0.12659190E+00  0.24789828E+00  0.50404565E+00
  0.27709890E+00  0.34765752E+00  0.69633044E+00
  0.11106699E+00  0.58574842E+00  0.69719590E+00
  0.28466103E+00  0.81599592E+00  0.67918414E+00
  0.93402171E+00  0.20570272E+00  0.77093419E+00
  0.13754279E-02  0.32660869E+00  0.91839086E+00
  0.88412305E+00  0.61590539E+00  0.84940931E+00
  0.84612339E+00  0.97011762E+00  0.86168469E+00
  0.44796871E+00  0.89813649E+00  0.95674626E+00
  0.40601796E+00  0.98533515E+00  0.15363187E+00
  0.38476441E+00  0.12227401E+00  0.29065098E+00
  0.55188846E+00  0.42045209E+00  0.26653667E+00
  0.39539848E+00  0.71654268E+00  0.20118337E+00
  0.25534207E+00  0.87581644E+00  0.36396578E+00
  0.39979759E+00  0.62314711E-01  0.53852707E+00
  0.43834365E+00  0.39202484E+00  0.49555288E+00
  0.32756247E+00  0.62912270E+00  0.51426126E+00
  0.58460208E+00  0.74170606E+00  0.59479619E+00
  0.15283791E+00  0.97196137E+00  0.76800152E+00
  0.60184595E+00  0.26351490E+00  0.80522398E+00
  0.42162493E+00  0.53925696E+00  0.82296414E+00
  0.14550098E+00  0.72623522E+00  0.87550993E+00
  0.16512184E+00  0.10026306E+00  0.95291411E+00
  0.35980368E+00  0.28650078E+00  0.12400485E-01
  0.50851848E-02  0.44099943E+00  0.64625155E-01
  0.68438256E+00  0.66367388E+00  0.10687047E+00
  0.77050208E+00  0.83737401E+00  0.16250372E+00
  0.66053471E+00  0.94791720E+00  0.28984303E+00
  0.69525227E+00  0.59338880E-01  0.42509634E+00
  0.86558754E+00  0.29772194E+00  0.31957126E+00
  0.68123074E+00  0.60190296E+00  0.46379957E+00
  0.92443782E+00  0.84923025E+00  0.57791906E+00
  0.87609564E+00  0.92850424E-01  0.59861463E+00
  0.98783459E+00  0.48827765E+00  0.57121848E+00
  0.74206001E+00  0.48854371E+00  0.75467332E+00
  0.65122855E+00  0.89951849E+00  0.69197079E+00
  0.47883637E+00  0.93696451E-01  0.73898278E+00
  0.70065643E+00  0.35583389E+00  0.53152052E-01
  0.53520395E+00  0.70302905E+00  0.89307359E+00
  0.00000000E+00  0.00000000E+00  0.00000000E+00
  0.00000000E+00  0.00000000E+00  0.00000000E+00
  0.00000000E+00  0.00000000E+00  0.00000000E+00
  0.00000000E+00  0.00000000E+00  0.00000000E+00
  0.00000000E+00  0.00000000E+00  0.00000000E+00
  0.00000000E+00  0.00000000E+00  0.00000000E+00
  0.00000000E+00  0.00000000E+00  0.00000000E+00
  0.00000000E+00  0.00000000E+00  0.00000000E+00
  0.00000000E+00  0.00000000E+00  0.00000000E+00
  0.00000000E+00  0.00000000E+00  0.00000000E+00
  0.00000000E+00  0.00000000E+00  0.00000000E+00
  0.00000000E+00  0.00000000E+00  0.00000000E+00
  0.00000000E+00  0.00000000E+00  0.00000000E+00
  0.00000000E+00  0.00000000E+00  0.00000000E+00
  0.00000000E+00  0.00000000E+00  0.00000000E+00
  0.00000000E+00  0.00000000E+00  0.00000000E+00
  0.00000000E+00  0.00000000E+00  0.00000000E+00
  0.00000000E+00  0.00000000E+00  0.00000000E+00
  0.00000000E+00  0.00000000E+00  0.00000000E+00
  0.00000000E+00  0.00000000E+00  0.00000000E+00
  0.00000000E+00  0.00000000E+00  0.00000000E+00
  0.00000000E+00  0.00000000E+00  0.00000000E+00
  0.00000000E+00  0.00000000E+00  0.00000000E+00
  0.00000000E+00  0.00000000E+00  0.00000000E+00
  0.00000000E+00  0.00000000E+00  0.00000000E+00
  0.00000000E+00  0.00000000E+00  0.00000000E+00
  0.00000000E+00  0.00000000E+00  0.00000000E+00
  0.00000000E+00  0.00000000E+00  0.00000000E+00
  0.00000000E+00  0.00000000E+00  0.00000000E+00
  0.00000000E+00  0.00000000E+00  0.00000000E+00
  0.00000000E+00  0.00000000E+00  0.00000000E+00
  0.00000000E+00  0.00000000E+00  0.00000000E+00
  0.00000000E+00  0.00000000E+00  0.00000000E+00
  0.00000000E+00  0.00000000E+00  0.00000000E+00
  0.00000000E+00  0.00000000E+00  0.00000000E+00
  0.00000000E+00  0.00000000E+00  0.00000000E+00
  0.00000000E+00  0.00000000E+00  0.00000000E+00
  0.00000000E+00  0.00000000E+00  0.00000000E+00
  0.00000000E+00  0.00000000E+00  0.00000000E+00
  0.00000000E+00  0.00000000E+00  0.00000000E+00
  0.00000000E+00  0.00000000E+00  0.00000000E+00
  0.00000000E+00  0.00000000E+00  0.00000000E+00
  0.00000000E+00  0.00000000E+00  0.00000000E+00
  0.00000000E+00  0.00000000E+00  0.00000000E+00
  0.00000000E+00  0.00000000E+00  0.00000000E+00
  0.00000000E+00  0.00000000E+00  0.00000000E+00
  0.00000000E+00  0.00000000E+00  0.00000000E+00
  0.00000000E+00  0.00000000E+00  0.00000000E+00
  0.00000000E+00  0.00000000E+00  0.00000000E+00
  0.00000000E+00  0.00000000E+00  0.00000000E+00
  0.00000000E+00  0.00000000E+00  0.00000000E+00
  0.00000000E+00  0.00000000E+00  0.00000000E+00
  0.00000000E+00  0.00000000E+00  0.00000000E+00
  0.00000000E+00  0.00000000E+00  0.00000000E+00
  0.00000000E+00  0.00000000E+00  0.00000000E+00
  0.00000000E+00  0.00000000E+00  0.00000000E+00
  0.00000000E+00  0.00000000E+00  0.00000000E+00
  0.00000000E+00  0.00000000E+00  0.00000000E+00
  0.00000000E+00  0.00000000E+00  0.00000000E+00
  0.00000000E+00  0.00000000E+00  0.00000000E+00
  0.00000000E+00  0.00000000E+00  0.00000000E+00
  0.00000000E+00  0.00000000E+00  0.00000000E+00
  0.00000000E+00  0.00000000E+00  0.00000000E+00
  0.00000000E+00  0.00000000E+00  0.00000000E+00
  0.00000000E+00  0.00000000E+00  0.00000000E+00
  0.00000000E+00  0.00000000E+00  0.00000000E+00
  0.00000000E+00  0.00000000E+00  0.00000000E+00
  0.00000000E+00  0.00000000E+00  0.00000000E+00
  0.00000000E+00  0.00000000E+00  0.00000000E+00
  0.00000000E+00  0.00000000E+00  0.00000000E+00
  0.00000000E+00  0.00000000E+00  0.00000000E+00
  0.00000000E+00  0.00000000E+00  0.00000000E+00
  0.00000000E+00  0.00000000E+00  0.00000000E+00
  0.00000000E+00  0.00000000E+00  0.00000000E+00
  0.00000000E+00  0.00000000E+00  0.00000000E+00
  0.00000000E+00  0.00000000E+00  0.00000000E+00
  0.00000000E+00  0.00000000E+00  0.00000000E+00
  0.00000000E+00  0.00000000E+00  0.00000000E+00
  0.00000000E+00  0.00000000E+00  0.00000000E+00
  0.00000000E+00  0.00000000E+00  0.00000000E+00
  0.00000000E+00  0.00000000E+00  0.00000000E+00
  0.00000000E+00  0.00000000E+00  0.00000000E+00
  0.00000000E+00  0.00000000E+00  0.00000000E+00
  0.00000000E+00  0.00000000E+00  0.00000000E+00
  0.00000000E+00  0.00000000E+00  0.00000000E+00
  0.00000000E+00  0.00000000E+00  0.00000000E+00
  0.00000000E+00  0.00000000E+00  0.00000000E+00
  0.00000000E+00  0.00000000E+00  0.00000000E+00
  0.00000000E+00  0.00000000E+00  0.00000000E+00
  0.00000000E+00  0.00000000E+00  0.00000000E+00
  0.00000000E+00  0.00000000E+00  0.00000000E+00
  0.00000000E+00  0.00000000E+00  0.00000000E+00
  0.00000000E+00  0.00000000E+00  0.00000000E+00
  0.00000000E+00  0.00000000E+00  0.00000000E+00
  0.00000000E+00  0.00000000E+00  0.00000000E+00
  0.00000000E+00  0.00000000E+00  0.00000000E+00
