title
1.
-9.615450000 2.380690000 -0.008360000
-6.867750000 -11.893050000 0.005400000
-4.128660000 -2.361650000 13.397440000
120
Cartesian
-16.492218496 -9.500477184 13.403395946    Ir
-12.365519882 -8.721197799 2.241695957    Ir
-13.745432221 -9.497864111 13.399407132    Ir
-9.617881145 -8.719490502 2.236368646    Ir
-10.998182221 -9.498384111 13.401227132    Ir
-6.870655010 -8.719990233 2.138372031    Ir
-17.866382221 -7.118214111 13.394687132    Ir
-13.738831145 -6.339840502 2.231648646    Ir
-15.119132221 -7.118734111 13.396507132    Ir
-10.991581145 -6.340360502 2.233468646    Ir
-12.371882221 -7.119254111 13.398327132    Ir
-8.310842094 -6.340867858 2.235289244    Ir
-9.624632221 -7.119774111 13.400147132    Ir
-5.497081145 -6.341400502 2.237108646    Ir
-16.492832221 -4.739604111 13.393607132    Ir
-12.298591626 -3.961219391 2.230568146    Ir
-13.745586478 -4.606764549 13.395404894    Ir
-9.618031145 -3.961750502 2.232388646    Ir
-10.998332221 -4.740644111 13.397247132    Ir
-6.870804596 -4.087351646 2.234179280    Ir
-8.251082221 -4.741164111 13.399067132    Ir
-4.123546950 -3.962777208 2.169305593    Ir
-15.119282221 -2.360994111 13.392527132    Ir
-10.991731145 -1.582620502 2.229488646    Ir
-12.372032227 -2.361323801 13.394346973    Ir
-8.244481145 -1.583140502 2.231308646    Ir
-9.624782221 -2.362034111 13.396167132    Ir
-5.497231145 -1.583660502 2.233128646    Ir
-6.877532221 -2.362554111 13.397987132    Ir
-2.749981145 -1.584180502 2.234948646    Ir
-20.675858558 -11.875446038 13.396850489    Ir
-9.618181145 0.795989498 2.228408646    Ir
-17.866226862 -12.042617962 13.398627909    Ir
-6.870931145 0.795469498 2.230228646    Ir
-15.118982221 -11.876474111 13.400487132    Ir
-11.158093118 -11.098092636 2.237427576    Ir
-12.371732221 -11.876994111 13.402307132    Ir
-8.244181145 -11.098620502 2.239268646    Ir
-19.052171342 -9.496836026 13.395757518    Ir
-15.112400875 -8.530828858 2.232705667    Ir
-8.245692221 -9.509864111 4.470927132    Ir
-8.246808571 -11.093133016 6.905319084    Ir
-15.113892221 -7.129694111 4.464387132    Ir
-15.014877567 -8.712965775 6.698765634    Ir
-12.366643662 -7.130211097 4.468663465    Ir
-12.367751145 -8.713490502 6.700608646    Ir
-9.619392221 -7.130734111 4.468027132    Ir
-9.554080324 -8.901835134 6.702406452    Ir
-6.872142221 -7.131254111 4.469847132    Ir
-6.873274775 -8.714510726 6.604030085    Ir
-13.740342221 -4.751084111 4.463307132    Ir
-13.607975952 -6.334362087 6.697707729    Ir
-10.993092221 -4.751604111 4.465127132    Ir
-10.994224481 -6.334859502 6.832974674    Ir
-8.245842221 -4.752124111 4.466947132    Ir
-8.246951145 -6.335400502 6.701348646    Ir
-5.498592221 -4.752644111 4.468767132    Ir
-5.499701145 -6.335920502 6.703168646    Ir
-12.366792221 -2.372474111 4.462227132    Ir
-12.201252883 -3.955734633 6.696605025    Ir
-9.619542221 -2.372994111 4.464047132    Ir
-9.620651145 -3.956270502 6.698448646    Ir
-6.872292221 -2.373514111 4.465867132    Ir
-6.873401145 -3.956790502 6.700268646    Ir
-4.125042221 -2.374034111 4.467687132    Ir
-4.126184295 -3.957293682 6.735182161    Ir
-10.993242221 0.006135889 4.461147132    Ir
-10.860875952 -1.577142087 6.695547729    Ir
-8.245992221 0.005615889 4.462967132    Ir
-8.247124905 -1.577640452 6.597373388    Ir
-5.498742221 0.005095889 4.464787132    Ir
-5.499851145 -1.578180502 6.699188646    Ir
-9.619231659 -11.788632885 4.471968281    Ir
-2.752601145 -1.578700502 6.701008646    Ir
-16.487442221 -9.508304111 4.465467132    Ir
-16.488551145 -11.091580502 6.699868646    Ir
-13.740192221 -9.508824111 4.467287132    Ir
-13.741324377 -11.092079722 6.834956032    Ir
-10.992942221 -9.509344111 4.469107132    Ir
-10.994051145 -11.092620502 6.703508646    Ir
-13.742812221 -9.503344111 8.933347132    Ir
-13.743921145 -11.086620502 11.167748646    Ir
-10.995562221 -9.503864111 8.935167132    Ir
-10.996671145 -11.087140502 11.169568646    Ir
-8.248302766 -9.371095863 8.937009623    Ir
-17.864871145 -8.706970502 11.163028646    Ir
-15.116512221 -7.124214111 8.930447132    Ir
-15.117621145 -8.707490502 11.164848646    Ir
-12.369246327 -7.191509104 8.932233679    Ir
-12.370371145 -8.708010502 11.166668646    Ir
-9.622012221 -7.125254111 8.934087132    Ir
-9.556514044 -8.708519376 11.168488091    Ir
-6.874762221 -7.125774111 8.935907132    Ir
-16.491337108 -6.328346879 11.095493557    Ir
-13.742962221 -4.745604111 8.929367132    Ir
-13.744071145 -6.328880502 11.163768646    Ir
-10.995696338 -4.812566062 8.931153401    Ir
-10.996821145 -6.329400502 11.165588646    Ir
-8.248462221 -4.746644111 8.933007132    Ir
-8.249571145 -6.329920502 11.167408646    Ir
-5.501212221 -4.747164111 8.934827132    Ir
-15.117771145 -3.949750502 11.160868646    Ir
-12.369412221 -2.366994111 8.928287132    Ir
-12.370521145 -3.950270502 11.162688646    Ir
-9.622162221 -2.367514111 8.930107132    Ir
-9.623286474 -3.950776369 11.331137558    Ir
-6.874994639 -2.368034095 8.931927077    Ir
-6.876021145 -3.951310502 11.166328646    Ir
-4.127644204 -2.501842364 8.933724659    Ir
-13.744229205 -1.571133527 11.126695083    Ir
-10.995862221 0.011615889 8.927207132    Ir
-10.996971145 -1.571660502 11.161608646    Ir
-15.116362221 -11.881954111 8.934427132    Ir
-8.249721145 -1.572180502 11.163428646    Ir
-12.369112221 -11.882474111 8.936247132    Ir
-5.502471145 -1.572700502 11.165248646    Ir
-9.621863374 -11.882991700 8.940032198    Ir
-19.238421145 -11.085580502 11.164108646    Ir
-16.552658338 -9.502835996 8.931530344    Ir
-16.491171145 -11.086100502 11.165928646    Ir
