title                                   
   1.00000000000000     
     2.7407827199212313   -4.7494603817421215    0.0000000000000000
     0.0000000000000000    0.0000000000000000   -8.7067547376140624
    10.9797038622269181    0.0095692641660560    0.0000000000000000
   Ir   Ru
    16    16
Direct
  0.3352162793901527  0.3722927243073784  0.1660630238956600
  0.3318962815956823  0.8778591592185663  0.6668749260313689
  0.6674989702836811  0.1261785929176114  0.8335443386267869
  0.6677129334133980  0.6238563329267564  0.8333893755988129
  0.3336256618980258  0.3730814422906121  0.9153311522496281
  0.3311801829439887  0.8773212536018065  0.9177777055951850
  0.8311801829439887  0.3726787463981935  0.4177777055951850
  0.8336256618980258  0.8769185577093879  0.4153311522496281
  0.8318962815956823  0.3721408407814337  0.1668749260313760
  0.8352162793901527  0.8777072756926216  0.6660630238956600
  0.6682406870073621  0.6275354162057383  0.0830454421146740
  0.6648082189178055  0.6227821066771639  0.5838559342852960
  0.1674989702836811  0.1238214070823886  0.3335443386267869
  0.1677129334133980  0.6261436670732436  0.3333893755988129
  0.1648082189178055  0.6272178933228361  0.0838559342852960
  0.1682406870073621  0.6224645837942617  0.5830454421146740
  0.3316851290091094  0.3723059699281279  0.6670002786669755
  0.3350313754932017  0.8775461109807168  0.1662833914924704
  0.6653276697465103  0.1238398190674843  0.3335158399325735
  0.6653981153351722  0.6261786667826570  0.3335275876586508
  0.3340935824810032  0.3725252135617865  0.4170147788312377
  0.3350926687238882  0.8770322506370078  0.4160054657221082
  0.8350926687238882  0.3729677493629922  0.9160054657221082
  0.8340935824810032  0.8774747864382135  0.9170147788312377
  0.8350313754932017  0.3724538890192832  0.6662833914924704
  0.8316851290091094  0.8776940300718721  0.1670002786669755
  0.6683269485788728  0.1228122166882741  0.0829979060032997
  0.6648652951821603  0.1267057458687617  0.5837728532952582
  0.1653276697465103  0.1261601809325157  0.8335158399325735
  0.1653981153351722  0.6238213332173430  0.8335275876586508
  0.1648652951821603  0.1232942541312383  0.0837728532952582
  0.1683269485788728  0.1271877833117259  0.5829979060032997
 
  0.00000000E+00  0.00000000E+00  0.00000000E+00
  0.00000000E+00  0.00000000E+00  0.00000000E+00
  0.00000000E+00  0.00000000E+00  0.00000000E+00
  0.00000000E+00  0.00000000E+00  0.00000000E+00
  0.00000000E+00  0.00000000E+00  0.00000000E+00
  0.00000000E+00  0.00000000E+00  0.00000000E+00
  0.00000000E+00  0.00000000E+00  0.00000000E+00
  0.00000000E+00  0.00000000E+00  0.00000000E+00
  0.00000000E+00  0.00000000E+00  0.00000000E+00
  0.00000000E+00  0.00000000E+00  0.00000000E+00
  0.00000000E+00  0.00000000E+00  0.00000000E+00
  0.00000000E+00  0.00000000E+00  0.00000000E+00
  0.00000000E+00  0.00000000E+00  0.00000000E+00
  0.00000000E+00  0.00000000E+00  0.00000000E+00
  0.00000000E+00  0.00000000E+00  0.00000000E+00
  0.00000000E+00  0.00000000E+00  0.00000000E+00
  0.00000000E+00  0.00000000E+00  0.00000000E+00
  0.00000000E+00  0.00000000E+00  0.00000000E+00
  0.00000000E+00  0.00000000E+00  0.00000000E+00
  0.00000000E+00  0.00000000E+00  0.00000000E+00
  0.00000000E+00  0.00000000E+00  0.00000000E+00
  0.00000000E+00  0.00000000E+00  0.00000000E+00
  0.00000000E+00  0.00000000E+00  0.00000000E+00
  0.00000000E+00  0.00000000E+00  0.00000000E+00
  0.00000000E+00  0.00000000E+00  0.00000000E+00
  0.00000000E+00  0.00000000E+00  0.00000000E+00
  0.00000000E+00  0.00000000E+00  0.00000000E+00
  0.00000000E+00  0.00000000E+00  0.00000000E+00
  0.00000000E+00  0.00000000E+00  0.00000000E+00
  0.00000000E+00  0.00000000E+00  0.00000000E+00
  0.00000000E+00  0.00000000E+00  0.00000000E+00
  0.00000000E+00  0.00000000E+00  0.00000000E+00
