title
1.
2.874858000 -4.979400000 0.000000000
0.000000000 0.000000000 -9.195210000
11.499432000 0.000000000 0.000000000
16 16
Cartesian
2.874570514 -1.659634020 -3.448203750    Ir
8.624286514 -1.659634020 -8.045808750    Ir
11.499719486 -3.319765980 -1.149401250    Ir
11.499719486 -3.319765980 -5.747006250    Ir
11.499144514 -1.659634020 -3.448203750    Ir
11.499144514 -1.659634020 -8.045808750    Ir
7.186857514 -4.149334020 -3.448203750    Ir
7.186857514 -4.149334020 -8.045808750    Ir
4.311999514 -4.149334020 -3.448203750    Ir
10.061715514 -4.149334020 -8.045808750    Ir
2.875145486 -3.319765980 -5.747006250    Ir
8.624861486 -3.319765980 -5.747006250    Ir
4.312574486 -0.830065980 -1.149401250    Ir
4.312574486 -0.830065980 -5.747006250    Ir
1.437716486 -0.830065980 -5.747006250    Ir
7.187432486 -0.830065980 -5.747006250    Ir
8.624286514 -1.659634020 -3.448203750    Ru
2.874570514 -1.659634020 -8.045808750    Ru
5.750003486 -3.319765980 -1.149401250    Ru
5.750003486 -3.319765980 -5.747006250    Ru
5.749428514 -1.659634020 -3.448203750    Ru
5.749428514 -1.659634020 -8.045808750    Ru
12.936573514 -4.149334020 -3.448203750    Ru
12.936573514 -4.149334020 -8.045808750    Ru
10.061715514 -4.149334020 -3.448203750    Ru
4.311999514 -4.149334020 -8.045808750    Ru
2.875145486 -3.319765980 -1.149401250    Ru
8.624861486 -3.319765980 -1.149401250    Ru
10.062290486 -0.830065980 -1.149401250    Ru
10.062290486 -0.830065980 -5.747006250    Ru
1.437716486 -0.830065980 -1.149401250    Ru
7.187432486 -0.830065980 -1.149401250    Ru
