title                                   
   1.00000000000000     
     2.7407827199212313   -4.7494603817421215    0.0000000000000000
     0.0000000000000000    0.0000000000000000   -8.7067547376140624
    10.9797038622269181    0.0095692641660560    0.0000000000000000
   Ir   Ru
    16    16
Direct
  0.3352162793901498  0.3722927243073761  0.1660630238956607
  0.3318962815956807  0.8778591592185642  0.6668749260313723
  0.6674989702836811  0.1261785929176122  0.8335443386267883
  0.6677129334133964  0.6238563329267592  0.8333893755988161
  0.3336256618980291  0.3730814422906120  0.9153311522496314
  0.3311801829439890  0.8773212536018087  0.9177777055951860
  0.8311801829439890  0.3726787463981915  0.4177777055951859
  0.8336256618980293  0.8769185577093879  0.4153311522496315
  0.8318962815956804  0.3721408407814360  0.1668749260313726
  0.8352162793901498  0.8777072756926237  0.6660630238956605
  0.6682406870073648  0.6275354162057354  0.0830454421146745
  0.6648082189178056  0.6227821066771624  0.5838559342852975
  0.1674989702836810  0.1238214070823878  0.3335443386267883
  0.1677129334133966  0.6261436670732408  0.3333893755988160
  0.1648082189178059  0.6272178933228376  0.0838559342852973
  0.1682406870073649  0.6224645837942646  0.5830454421146745
  0.3316851290091062  0.3723059699281312  0.6670002786669745
  0.3350313754932003  0.8775461109807137  0.1662833914924680
  0.6653276697465084  0.1238398190674825  0.3335158399325763
  0.6653981153351747  0.6261786667826573  0.3335275876586501
  0.3340935824810003  0.3725252135617843  0.4170147788312410
  0.3350926687238849  0.8770322506370107  0.4160054657221089
  0.8350926687238851  0.3729677493629890  0.9160054657221092
  0.8340935824810005  0.8774747864382152  0.9170147788312412
  0.8350313754932004  0.3724538890192862  0.6662833914924681
  0.8316851290091063  0.8776940300718690  0.1670002786669743
  0.6683269485788719  0.1228122166882763  0.0829979060032991
  0.6648652951821571  0.1267057458687585  0.5837728532952555
  0.1653276697465081  0.1261601809325175  0.8335158399325765
  0.1653981153351744  0.6238213332173427  0.8335275876586502
  0.1648652951821571  0.1232942541312414  0.0837728532952554
  0.1683269485788717  0.1271877833117237  0.5829979060032990
 
  0.00000000E+00  0.00000000E+00  0.00000000E+00
  0.00000000E+00  0.00000000E+00  0.00000000E+00
  0.00000000E+00  0.00000000E+00  0.00000000E+00
  0.00000000E+00  0.00000000E+00  0.00000000E+00
  0.00000000E+00  0.00000000E+00  0.00000000E+00
  0.00000000E+00  0.00000000E+00  0.00000000E+00
  0.00000000E+00  0.00000000E+00  0.00000000E+00
  0.00000000E+00  0.00000000E+00  0.00000000E+00
  0.00000000E+00  0.00000000E+00  0.00000000E+00
  0.00000000E+00  0.00000000E+00  0.00000000E+00
  0.00000000E+00  0.00000000E+00  0.00000000E+00
  0.00000000E+00  0.00000000E+00  0.00000000E+00
  0.00000000E+00  0.00000000E+00  0.00000000E+00
  0.00000000E+00  0.00000000E+00  0.00000000E+00
  0.00000000E+00  0.00000000E+00  0.00000000E+00
  0.00000000E+00  0.00000000E+00  0.00000000E+00
  0.00000000E+00  0.00000000E+00  0.00000000E+00
  0.00000000E+00  0.00000000E+00  0.00000000E+00
  0.00000000E+00  0.00000000E+00  0.00000000E+00
  0.00000000E+00  0.00000000E+00  0.00000000E+00
  0.00000000E+00  0.00000000E+00  0.00000000E+00
  0.00000000E+00  0.00000000E+00  0.00000000E+00
  0.00000000E+00  0.00000000E+00  0.00000000E+00
  0.00000000E+00  0.00000000E+00  0.00000000E+00
  0.00000000E+00  0.00000000E+00  0.00000000E+00
  0.00000000E+00  0.00000000E+00  0.00000000E+00
  0.00000000E+00  0.00000000E+00  0.00000000E+00
  0.00000000E+00  0.00000000E+00  0.00000000E+00
  0.00000000E+00  0.00000000E+00  0.00000000E+00
  0.00000000E+00  0.00000000E+00  0.00000000E+00
  0.00000000E+00  0.00000000E+00  0.00000000E+00
  0.00000000E+00  0.00000000E+00  0.00000000E+00
