title                                   
   1.00000000000000     
    21.7835600000000014   -9.4326500000000006   25.7598599999999998
   -21.7835600000000014    9.4326500000000006   25.7598599999999998
    19.0606900000000010  -14.1487999999999996  -25.7598599999999998
   Ru
   480
Direct
  0.0373691666686113  0.7708391667979129  0.2665300001215414
  0.1459581666629646  0.8124941666926517  0.3334640000339277
  0.0873803333513408  0.5208383333110902  0.0665419999802381
  0.1374034999842948  0.7708375000839141  0.3665660000876159
  0.0873803333329732  0.0208383334029065  0.5665420000536869
  0.0959641666569624  0.0624941667862657  0.5334700001215396
  0.0959641666647215  0.5624941665354228  0.0334699998784558
  0.0459581666629632  0.8124941666926517  0.2334640000339263
  0.1208646666686519  0.8537766666949693  0.2662180000458179
  0.2292205000004657  0.8959125000708497  0.3333980000751993
  0.1707388333436057  0.6039108334250116  0.0664080000825393
  0.2207894999995332  0.8540374999291487  0.3665619999248051
  0.1709215000136624  0.1044175000323264  0.5669140000265784
  0.1792033333386343  0.1458433332835440  0.5333099999632722
  0.1790086666754860  0.6457566665610273  0.0334019998954247
  0.1292811666623237  0.8960891665919348  0.2335019999248047
  0.2041733333386304  0.9378933332835473  0.2671299999632737
  0.3125818333343631  0.9788958333568587  0.3329560000361980
  0.2542035000016583  0.6880874999609574  0.0672259999587297
  0.3040521666710134  0.9372441667414009  0.3664980000751967
  0.2541526666737326  0.1871066667182575  0.5661960000508870
  0.2626074999982677  0.2294574998909980  0.5335299998931475
  0.2625139999929402  0.7295599999484068  0.0338039999491144
  0.2123978333308258  0.9788758333787229  0.2331420000389954
  0.0041526666737326  0.9371066667182575  0.0661960000508870
  0.1124245000052539  0.9794324999238526  0.1337119999174590
  0.0541225000001049  0.6869124998818208  0.8660999998858046
  0.1040918333296901  0.9377358333440782  0.1670159999954564
  0.0541225000107062  0.1869125000408474  0.3661000000554324
  0.0625748333369742  0.2289308333225932  0.3329840000045436
  0.0625441666665623  0.7297541667848506  0.8339000001141983
  0.0125603333339726  0.9787983333047450  0.0328519999875851
  0.7874148333339335  0.5211208332783812  0.2669539999417694
  0.8957174999929691  0.5618474999407894  0.3326999999298792
  0.8374061666662058  0.2710441667251189  0.0668720000463452
  0.8874173333262689  0.5207333334110444  0.3666340000706541
  0.8376036666718178  0.7712616667086962  0.5671720000316540
  0.8457833333413021  0.8128533332340382  0.5338099998931511
  0.8459184999994065  0.3122125000549474  0.0330460000582349
  0.7959230000044499  0.5625649999565496  0.2333379999610017
  0.5873899999885666  0.5204100000105996  0.0661600000146905
  0.6959153333329766  0.5627233332736026  0.1334919999321471
  0.6374856666820605  0.2699616666786895  0.8657540000118900
  0.6874159999976683  0.5206199999459500  0.1665159999513861
  0.6375069999969654  0.7717049999897725  0.3675720000022693
  0.6459455000025045  0.8132074999546148  0.3340179999609987
  0.6459271666671285  0.3122891666082168  0.8331279999536534
  0.5957785000090041  0.5621824999242264  0.0330459999293495
  0.2875429999946419  0.0217150000650292  0.2676180000751955
  0.3958455000043486  0.0621775000747320  0.3329580000751946
  0.3374539999906858  0.7698100000424049  0.0656240000486150
  0.3874868333347834  0.0201808334013478  0.3659360000655809
  0.3374461666627369  0.2714741666364233  0.5673419999541807
  0.3458994999917735  0.3127975000506851  0.5336120000463467
  0.3457903333386909  0.8116183332683065  0.0323819999248016
  0.2958485000012416  0.0631425000457639  0.2340560000508916
  0.3875474999978508  0.5201874999758118  0.8659799999853064
  0.4957426666686402  0.5618866666609890  0.9327359999807641
  0.4373948333229123  0.2703408333334707  0.6661539999858377
  0.4875966666515552  0.5214166666956288  0.9672400000293777
  0.4375998333190338  0.7713258333295911  0.1671739999858346
  0.4458184999941039  0.8128624999754379  0.1337459999734207
  0.4458793333426527  0.3135233332909309  0.6343759999513807
  0.3957799999930742  0.5625499999519121  0.8334499999372227
  0.0875343333291667  0.0217883334177671  0.0676560000802695
  0.1958918333308972  0.0624758332681594  0.1332459999440374
  0.1374553333288873  0.7698933333767783  0.8656820000390013
  0.1874433333516947  0.0208733333708224  0.1667700000480892
  0.1375343333291710  0.2717883334177671  0.3676560000802667
  0.1457830000062899  0.3125350000766716  0.3334380000751977
  0.1458740000021237  0.8134500000318070  0.8343240000339236
  0.0957830000062856  0.0625350000766716  0.0334380000752006
  0.1875343333291681  0.5217883334177671  0.6676560000802709
  0.2958918333308986  0.5624758332681594  0.7332459999440388
  0.2374553333288816  0.2698933333767783  0.4656820000389956
  0.2875521666579459  0.5208141666541195  0.7665779999903819
  0.2374553333288816  0.7698933333767783  0.9656820000389956
  0.2458918333309015  0.8124758332681594  0.9332459999440417
  0.2457960000015547  0.3115599999498286  0.4323559999513833
  0.1958890000016993  0.5633649999873143  0.6342640000045421
  0.9875581666729829  0.5205241666064211  0.4664039999344212
  0.0957796666596806  0.5616316667631196  0.5324080000972344
  0.0374335000065358  0.2711274999959770  0.2669060000141599
  0.0875493333289583  0.5216933332662208  0.5675859999440362
  0.0375581666729801  0.7705241666064211  0.7664039999344183
  0.0458899999938609  0.8133600000901140  0.7342600000995034
  0.0458988333378869  0.3121908334303143  0.2330780000898898
  0.9958899999832624  0.5633599999310874  0.4342599999298784
  0.8708915000063158  0.6038574999397497  0.2664039999344183
  0.9791129999930135  0.6449650000964553  0.3324080000972316
  0.9207668333215082  0.3544608334211290  0.0669060000876129
  0.9707733333384212  0.6033033333905991  0.3657400000701259
  0.9207668333215082  0.8544608334211290  0.5669060000876129
  0.9291129999930163  0.8949650000964553  0.5324080000972344
  0.9291064999944609  0.3961225000351618  0.0335740000412699
  0.8792133333227312  0.6459233333036067  0.2333899999519105
  0.6707441666653509  0.6042341666021542  0.0668499999225318
  0.7791950000018346  0.6457549999908210  0.1333499999926531
  0.7207183333200575  0.3538383333531172  0.8664500000220343
  0.7707866666483056  0.6040766666291759  0.1666099999519091
  0.7209171666616214  0.8540991666357627  0.3664779999756931
  0.7291673333358730  0.8961533332803242  0.3335739999417626
  0.7290828333383814  0.3959008333642373  0.8335220000243098
  0.6791723333262709  0.6455183332817427  0.0331039999491125
  0.3709171666616200  0.1040991666357627  0.2664779999756917
  0.4791456666708314  0.1459116665822293  0.3333239999197275
  0.4209420000069883  0.8545000000328500  0.0668820000243073
  0.4708510000033854  0.1040149999406523  0.3664659999440403
  0.4209420000069883  0.3545000000328500  0.5668820000243073
  0.4291499999965325  0.3959799999113045  0.5335299999078416
  0.4290579999930131  0.8954999999671500  0.0331179999756941
  0.3790730000005667  0.1457749999526712  0.2333779999610002
  0.4707624999888793  0.6036524999146664  0.8661599999151832
  0.5792421666840752  0.6453341666993779  0.9327480000384725
  0.5207778333477719  0.3546558333405798  0.6671920000022737
  0.5709310000125711  0.6042050000240451  0.9666060000288539
  0.5208978333275738  0.8546858333122742  0.1671719999615320
  0.5290510000084794  0.8958849999979179  0.1334660000141596
  0.5291021666724305  0.3953141666877258  0.6328280000384723
  0.4792886666644733  0.6457766666161220  0.8332019999394902
  0.1708978333275724  0.1046858333122742  0.0671719999615306
  0.2790974999994802  0.1463275000736886  0.1339200000848138
  0.2208814999979225  0.8536774999945536  0.8661340000118898
  0.2707758333238388  0.1045758333458764  0.1671800000146888
  0.2208814999979225  0.3536774999945536  0.3661340000118898
  0.2292141666761651  0.3954741666541253  0.3328599999853097
  0.2291184999826683  0.8963224999860344  0.8338659999881131
  0.1791493333365111  0.1457833333810399  0.0333160000508883
  0.2708931666741918  0.6044291666598056  0.6669040000045428
  0.3791531666594992  0.6456891667332556  0.7332240000633092
  0.3208055000047594  0.3543474999899203  0.4669079999830359
  0.3708513333336896  0.6041433333930613  0.7666080000678548
  0.3206725000058270  0.8540625001351287  0.9667100001215445
  0.3291543333310045  0.8960683334085857  0.9335060000729243
  0.3291068333258096  0.3955708333401944  0.4330959999954587
  0.2791356666636986  0.6459216666412004  0.6334439999638022
  0.0709878333320333  0.6042658333028044  0.4666119999875846
  0.1792426666721028  0.6457666666203821  0.5332959999513847
  0.1209975000013159  0.3543075000645075  0.2666500000774690
  0.1708033333331258  0.6040033333110912  0.5665199999853101
  0.1206628333365458  0.8540208333734256  0.7666720000316545
  0.1291934999924749  0.8959375000068590  0.7334159999954579
  0.1291944999952364  0.3956525000100797  0.2330920000169598
  0.0791869999941355  0.6459749999678124  0.4334819999541821
  0.9542389999990775  0.6874649999875970  0.2665939999711497
  0.0623543333250751  0.7299683333916391  0.3340160000655814
  0.0041601666699478  0.4373041665961921  0.0664959999366914
  0.0543130000083352  0.6866450000897402  0.3659480000825397
  0.0042100000022529  0.9372999999060028  0.5664799999004941
  0.0124480000040279  0.9792200000413658  0.5333480000531594
  0.0124276666675911  0.4792016666790673  0.0334060000288545
  0.9626476666531119  0.7285516666454583  0.2328759999807630
  0.7541169999992192  0.6877049998957787  0.0668519999027666
  0.8625355000025081  0.7288574999546142  0.1330579999610038
  0.8041868333341569  0.4372408333346129  0.8664360000215083
  0.8542121666746851  0.6874041667230344  0.1666180000605095
  0.8041411666700853  0.9377591667290019  0.3668920000463416
  0.8124680000011963  0.9792900000194038  0.3333980000050758
  0.8125064999967151  0.4793625000704722  0.8335040000633072
  0.7623584999955213  0.7300824999217639  0.0341159999366951
  0.4542378333120425  0.1868258332967443  0.2660719999615324
  0.5624958333412025  0.2290158333522214  0.3331700000073425
  0.5040801666850641  0.9380941666965370  0.0671660000288554
  0.5541346666770437  0.1867566666401643  0.3658479999683451
  0.5040923333391234  0.4381683333467734  0.5672440000192367
  0.5124998333359798  0.4789958334207540  0.5331540000706525
  0.5124288333352141  0.9798408333505151  0.0339280000384719
  0.4625339999817086  0.2298999999812565  0.2341439999784924
  0.5542346666654012  0.6868266667578240  0.8660780000898853
  0.6625376666569949  0.7299416666493386  0.9341759999807664
  0.6042398333392285  0.4368958333579016  0.6661540000265802
  0.6541260000070608  0.6867400000515929  0.9658360000508921
  0.6040861666731274  0.9381041666439032  0.1671719999875805
  0.6125104999982085  0.9793225000355434  0.1335080000531619
  0.6125865000010151  0.4785724999895393  0.6328339999711474
  0.5625438333244048  0.7302158334278488  0.8344880000972310
  0.2541816666629941  0.1872816666850312  0.0664800000146926
  0.3624476666584115  0.2281016667249745  0.1321760000655772
  0.3041451666626074  0.9377091666329207  0.8668359999660709
  0.3541916666536054  0.1882516667086946  0.1674900000367288
  0.3041338333205275  0.4377258334239684  0.3668680000972344
  0.3124605000047609  0.4781224999899223  0.3321879999830344
  0.3124850000036759  0.9793849999816402  0.8335199999853131
  0.2624779999973157  0.2284000000155260  0.0324980000050701
  0.3541931666537792  0.6872791666092510  0.6664639999491087
  0.4624650000096011  0.7283849999985819  0.7324899999926515
  0.4041971666522315  0.4373191666594209  0.4665079999977308
  0.4542026666675909  0.6882766666790658  0.7675060000288525
  0.4041298333222869  0.9376758332667379  0.9668139999417633
  0.4125566666599454  0.9802466666408236  0.9345099999519135
  0.4125215000040612  0.4789575000337436  0.4331640000339263
  0.3624741666814657  0.7291241667336408  0.6333200000701211
  0.0540471666597853  0.1872691666449384  0.8665279999830346
  0.1625365000075263  0.2290124999931393  0.9332640000045416
  0.1042823333354548  0.9374683332358345  0.6665139999123824
  0.1541915000036411  0.1875474999892575  0.9666840000045482
  0.1042788333525806  0.4377308333568593  0.1667980000311289
  0.1124251666630229  0.4793691666774080  0.1335159999954527
  0.1123878333324484  0.9789358332179887  0.6332019998954195
  0.0625821666579469  0.2289641666541229  0.8331579999903838
  0.1542788333525777  0.6877308333568593  0.4667980000311260
  0.2624698333318847  0.7293258333946255  0.5334140000559628
  0.2040456666581889  0.4375316666687468  0.2668139999858354
  0.2541791666669795  0.6874091665707311  0.5665399999004919
  0.2040456666581889  0.9375316666687468  0.7668139999858354
  0.2124874999890878  0.9792574999369066  0.7334599999298774
  0.2126209999901150  0.4791350000897339  0.2331860000876134
  0.1625195000048407  0.7288375000086660  0.4329420000096178
  0.8375323333374993  0.7698783332488972  0.0657439999197322
  0.9458086666603833  0.8127566665899906  0.1336619999248043
  0.8874823333374948  0.5218283332488980  0.8676439999197285
  0.9374804999951607  0.7711624999913411  0.1670579999903836
  0.8874613333412498  0.0217933333785822  0.3675880000531606
  0.8958528333381679  0.0621708333419946  0.3329420000096164
  0.8958719999920888  0.5615399999547535  0.8324119999468422
  0.8458201666679059  0.8128341667124346  0.0337360000508866
  0.5374613333412483  0.2717933333785822  0.2675880000531592
  0.6458653333456184  0.3122433333163954  0.3330119999875834
  0.5875123333228061  0.0198383333223475  0.0656839999784893
  0.6375246666729524  0.2705766667433380  0.3663380000751957
  0.5875123333228061  0.5198383333223475  0.5656839999784893
  0.5958086666603819  0.5627566665899906  0.5336619999248029
  0.5958210000105240  0.0634950000109811  0.0343160000215050
  0.5457743333497831  0.3124283333612610  0.2333260000288533
  0.6375573333391245  0.7716933333467750  0.8675840000192352
  0.7457731666819569  0.8124091666675710  0.9333040000045472
  0.6875603333417359  0.5216783333125079  0.6675719999875795
  0.7374336666665187  0.7707616666291841  0.9666519999468406
  0.6875573333391287  0.0216933333467750  0.1675840000192323
  0.6957743333497888  0.0624283333612610  0.1333260000288519
  0.6958969999937139  0.5633550000526313  0.6342520000463452
  0.6457743333497845  0.8124283333612610  0.8333260000288547
  0.3375573333391273  0.2716933333467750  0.0675840000192380
  0.4457731666819527  0.3124091666675710  0.1333040000045429
  0.3875603333417388  0.0216783333125079  0.8675719999875824
  0.4374345000089264  0.2707424999054879  0.1666319999027692
  0.3875603333417388  0.5216783333125079  0.3675719999875824
  0.3957731666819555  0.5624091666675710  0.3333040000045457
  0.3958999999963311  0.0633400000183642  0.8342400000146881
  0.3458390000041618  0.3125449999155663  0.0333839999197281
  0.4373778333322420  0.7706958333250498  0.6666520000022729
  0.5458339999913093  0.8124599999798363  0.7332939999711456
  0.4876168333386630  0.5209708334052294  0.4666760000655827
  0.5374993333420193  0.7708733333534994  0.7667060000288544
  0.4873778333322463  0.0206958333250498  0.9666520000022700
  0.4958390000041675  0.0625449999155663  0.9333839999197338
  0.4957164999946713  0.5623624999281063  0.4333239999344229
  0.4458390000041632  0.8125449999155663  0.6333839999197295
  0.1373778333322448  0.2706958333250498  0.8666520000022757
  0.2458339999913122  0.3124599999798363  0.9332939999711485
  0.1876168333386659  0.0209708334052294  0.6666760000655785
  0.2374943333291668  0.2707883334177694  0.9666160000802719
  0.1876168333386659  0.5209708334052294  0.1666760000655785
  0.1958339999913079  0.5624599999798363  0.1332939999711442
  0.1959555000010909  0.0626375000082859  0.6333479999977243
  0.1458039999913083  0.3120099999798356  0.8328139999711439
  0.2375651666642327  0.7710991667307994  0.4667960000655782
  0.3457995000050502  0.8120175000309047  0.5328220000243107
  0.2875641666647226  0.5210841666647283  0.2667799999999971
  0.3374623333264779  0.7703483333039856  0.5661439999637992
  0.2875651666642369  0.0210991667307994  0.7667960000655825
  0.2958019999992274  0.0620200000250861  0.7328220000243064
  0.2959038333266619  0.5627658333338559  0.2334679999977283
  0.2458019999992231  0.8120200000250861  0.4328220000243093
  0.9208984999975698  0.8544325000641280  0.0667960000655796
  0.0291328333383802  0.8953508333642404  0.1328220000243050
  0.9708974999980597  0.6044174999980569  0.8667799999999986
  0.0207931666656336  0.8536791666431469  0.1661439999638006
  0.9708974999980597  0.1044174999980569  0.3667799999999986
  0.9791328333383831  0.1453508333642404  0.3328220000243078
  0.9792371666707993  0.6460891667191575  0.8334580000605101
  0.9291261666664141  0.8951341666180568  0.0325819999394952
  0.6207145000070895  0.3543624999146644  0.2668819999101117
  0.7291218333215070  0.3951358334211292  0.3325860000876162
  0.6707144999995407  0.1043525000584538  0.0668720000463452
  0.7207845000015851  0.3534724999422139  0.3659119999321447
  0.6707145000070938  0.6043624999146644  0.5668819999101089
  0.6791251666664877  0.6451391667661071  0.5325860000876119
  0.6790551666720006  0.1460291667385576  0.0335560000655803
  0.6291251666664905  0.3951391667661071  0.2325860000876148
  0.7207145000070909  0.8543624999146644  0.8668819999101132
  0.8291218333398689  0.8951358333293129  0.9325860000141617
  0.7707144999995350  0.6043525000584538  0.6668720000463466
  0.8207811666566016  0.8534691665972360  0.9659119999321462
  0.7707144999995350  0.1043525000584538  0.1668720000463466
  0.7791218333215113  0.1451358334211292  0.1325860000876133
  0.7790541666724877  0.6460141666724866  0.6335399999999964
  0.7291663333285996  0.8958483333357918  0.8333479999977271
  0.4208306666687847  0.3541666666984753  0.0666640000339243
  0.5291693333312111  0.3958333333015247  0.1333359999660715
  0.4708306666687889  0.1041666666984753  0.8666640000339285
  0.5208306666687861  0.3541666666984753  0.1666640000339257
  0.4708306666687889  0.6041666666984753  0.3666640000339285
  0.4784114999875371  0.6283974999870736  0.3180239999784931
  0.4807963333283922  0.1335083334428546  0.8226380001045754
  0.4291693333312097  0.3958333333015247  0.0333359999660772
  0.5208306666687861  0.8541666666984753  0.6666640000339257
  0.6291693333312125  0.8958333333015247  0.7333359999660729
  0.5712251666695352  0.5939591666810102  0.4545460000288557
  0.6178818333311114  0.8500058332904032  0.7587859999587323
  0.5708306666687903  0.1041666666984753  0.9666640000339228
  0.5791693333312153  0.1458333333015247  0.9333359999660757
  0.5791693333312153  0.6458333333015247  0.4333359999660757
  0.5305559999901135  0.8972199999604271  0.6333359999660715
  0.2262680000117925  0.3751000000491302  0.8874880000531604
  0.3295333333259904  0.3940133333700615  0.9318800000293805
  0.2708306666687861  0.1041666666984753  0.6666640000339257
  0.3208306666687903  0.3541666666984753  0.9666640000339228
  0.2708306666687861  0.6041666666984753  0.1666640000339257
  0.2804708333336450  0.6380908333667037  0.1259500000220370
  0.2807723333409626  0.1337483333375928  0.6228540000118912
  0.2291693333312139  0.3958333333015247  0.8333359999660743
  0.3208306666687903  0.8541666666984753  0.4666640000339228
  0.4291693333312097  0.8958333333015247  0.5333359999660772
  0.3712251666695323  0.5939591666810102  0.2545460000288529
  0.4178828333306157  0.8409208333564777  0.5497020000243111
  0.3708306666687875  0.1041666666984753  0.7666640000339271
  0.3791693333312125  0.1458333333015247  0.7333359999660729
  0.3791693333312125  0.6458333333015247  0.2333359999660729
  0.3305559999901178  0.8972199999604271  0.4333359999660757
  0.0251724999927632  0.3703325000478515  0.6832900000367275
  0.1295333333259876  0.3940133333700615  0.7318800000293777
  0.0708306666687903  0.1041666666984753  0.4666640000339228
  0.1208306666687875  0.3541666666984753  0.7666640000339271
  0.0708306666687903  0.6041666666984753  0.9666640000339228
  0.0769706666522580  0.6269566666518003  0.9180239999784945
  0.0806393333385600  0.1259033332648016  0.4148759999366902
  0.0291693333312111  0.3958333333015247  0.6333359999660715
  0.7041640000021232  0.4375000000318039  0.2666640000339271
  0.8125026666645496  0.4791666666348604  0.3333359999660743
  0.7545585000028652  0.1772925000143388  0.0545460000288500
  0.8013784999994016  0.4250224999256460  0.3490959999366936
  0.7541640000021204  0.6875000000318039  0.5666640000339243
  0.7625026666645454  0.7291666666348604  0.5333359999660772
  0.7622818333347823  0.2204658332720442  0.0236459999440370
  0.7160791666500330  0.4712291666088717  0.2266699999372221
  0.8041640000021175  0.9375000000318039  0.8666640000339285
  0.9125026666645439  0.9791666666348604  0.9333359999660757
  0.8550134999900152  0.6841075000786105  0.6618160000802717
  0.9075761666602773  0.9287941667081725  0.9606020000389961
  0.8541640000021218  0.1875000000318039  0.1666640000339257
  0.8625026666645468  0.2291666666348604  0.1333359999660715
  0.8625026666645468  0.7291666666348604  0.6333359999660715
  0.8130568333215109  0.9797208332918217  0.8333359999660743
  0.5025708333316032  0.4073308333536403  0.0371200000146885
  0.6135926666645446  0.4737166666348642  0.1289759999660731
  0.5541640000021175  0.1875000000318039  0.8666640000339285
  0.6041640000021218  0.4375000000318039  0.1666640000339257
  0.5541640000021175  0.6875000000318039  0.3666640000339285
  0.5657603333176553  0.7204683332803228  0.3211719999468414
  0.5616116666613635  0.2210416665871549  0.8243199999151827
  0.5125026666645454  0.4791666666348604  0.0333359999660772
  0.6041640000021218  0.9375000000318039  0.6666640000339257
  0.7125026666645482  0.9791666666348604  0.7333359999660729
  0.6539405000137393  0.6789325000510686  0.4571280000531601
  0.7039395000068822  0.9199975000217222  0.7481920000169637
  0.6541640000021189  0.1875000000318039  0.9666640000339228
  0.6625026666645439  0.2291666666348604  0.9333359999660757
  0.6625026666645439  0.7291666666348604  0.4333359999660757
  0.6136118333292728  0.9802758332995865  0.6333359999660715
  0.3023988333225702  0.4115208333077263  0.8400279999830360
  0.4128666666593190  0.4773466667033901  0.9318800000293805
  0.3541640000021218  0.1875000000318039  0.6666640000339257
  0.4041640000021189  0.4375000000318039  0.9666640000339228
  0.3541640000021218  0.6875000000318039  0.1666640000339257
  0.3662243333348840  0.7236583334124660  0.1257860000729281
  0.3608246666745814  0.2249766667119175  0.6274680000531632
  0.3125026666645496  0.4791666666348604  0.8333359999660743
  0.4041640000021189  0.9375000000318039  0.4666640000339228
  0.5125026666645454  0.9791666666348604  0.5333359999660772
  0.4539421666726398  0.6787941667099773  0.2569680000531633
  0.5086484999955232  0.9250225000510639  0.5563660000582331
  0.4541640000021232  0.1875000000318039  0.7666640000339271
  0.4625026666645482  0.2291666666348604  0.7333359999660729
  0.4625026666645482  0.7291666666348604  0.2333359999660729
  0.4136118333292700  0.9802758332995865  0.4333359999660757
  0.1029374999931747  0.4157274999630332  0.6442199999445677
  0.2135926666645460  0.4737166666348642  0.7289759999660745
  0.1541640000021189  0.1875000000318039  0.4666640000339228
  0.2041640000021232  0.4375000000318039  0.7666640000339271
  0.1541640000021189  0.6875000000318039  0.9666640000339228
  0.1623476666759842  0.7039316666242641  0.9098359999513832
  0.1625186666550817  0.2087466666397830  0.4129319999615291
  0.1125026666645468  0.4791666666348604  0.6333359999660715
  0.8874973333354532  0.0208333333651396  0.8666640000339285
  0.9958359999978796  0.0624999999681961  0.9333359999660757
  0.9377295000009553  0.7689475000047779  0.6642420000096152
  0.9928898333188201  0.0128958333073470  0.9618139999711488
  0.9374973333354504  0.2708333333651396  0.1666640000339257
  0.9458359999978825  0.3124999999681961  0.1333359999660715
  0.9458359999978825  0.8124999999681961  0.6333359999660715
  0.8961134999920546  0.0627774999623725  0.8333359999660743
  0.6852081666803258  0.9869841666989956  0.6316340000265797
  0.7961999999926519  0.0606800000367258  0.7318800000293777
  0.7374973333354546  0.7708333333651396  0.4666640000339228
  0.7874973333354518  0.0208333333651396  0.7666640000339271
  0.7374973333354546  0.2708333333651396  0.9666640000339228
  0.7492506666591865  0.3114066666998880  0.9289340000412736
  0.7443150000055070  0.8159149999724562  0.4352299999779632
  0.6958359999978825  0.0624999999681961  0.6333359999660715
  0.4874973333354546  0.0208333333651396  0.4666640000339228
  0.5958359999978811  0.0624999999681961  0.5333359999660772
  0.5377295000009568  0.7689475000047779  0.2642420000096166
  0.5919808333293446  0.0174408333183251  0.5654499999926514
  0.5374973333354518  0.2708333333651396  0.7666640000339271
  0.5458359999978768  0.3124999999681961  0.7333359999660729
  0.5458359999978768  0.8124999999681961  0.2333359999660729
  0.4961134999920560  0.0627774999623725  0.4333359999660757
  0.9690791666833007  0.0745291667244601  0.8358300000627779
  0.0802593333312132  0.1403833333015285  0.9289759999660774
  0.0208306666687861  0.8541666666984753  0.6666640000339257
  0.0708306666687903  0.1041666666984753  0.9666640000339228
  0.0208306666687861  0.3541666666984753  0.1666640000339257
  0.0321040000041677  0.3942600000448664  0.1289340000412693
  0.0284353333362333  0.8953133333400558  0.6320820000096177
  0.9791693333312139  0.1458333333015247  0.8333359999660743
  0.7708306666687861  0.1041666666984753  0.6666640000339257
  0.8791693333312125  0.1458333333015247  0.7333359999660729
  0.8210628333342882  0.8522808333381136  0.4642420000096195
  0.8753141666626831  0.1007741666516608  0.7654499999926543
  0.8208306666687903  0.3541666666984753  0.9666640000339228
  0.8291693333312153  0.3958333333015247  0.9333359999660757
  0.8291693333312153  0.8958333333015247  0.4333359999660757
  0.7794468333253874  0.1461108332957082  0.6333359999660715
  0.5690791666727009  0.0745291665654335  0.4358299998931514
  0.6802593333312146  0.1403833333015285  0.5289759999660717
  0.6208306666687875  0.8541666666984753  0.2666640000339271
  0.6708306666687847  0.1041666666984753  0.5666640000339243
  0.6208306666687875  0.3541666666984753  0.7666640000339271
  0.6316239999963997  0.3937800000371041  0.7289340000412707
  0.6282783333280335  0.8877083332538191  0.2243199999151884
  0.5791693333312153  0.1458333333015247  0.4333359999660757
  0.8541640000021218  0.1875000000318039  0.6666640000339257
  0.9625026666645482  0.2291666666348604  0.7333359999660729
  0.9050134999900123  0.9341075000786105  0.4618160000802689
  0.9577394999954478  0.1795674999030226  0.7600019999101164
  0.9041640000021189  0.4375000000318039  0.9666640000339228
  0.9125026666645439  0.4791666666348604  0.9333359999660757
  0.9125026666645439  0.9791666666348604  0.4333359999660757
  0.8638893333234492  0.2305533332937628  0.6333359999660715
  0.6536635000090030  0.1620975000535338  0.4413160000508896
  0.7635926666645432  0.2237166666348642  0.5289759999660717
  0.7041640000021232  0.9375000000318039  0.2666640000339271
  0.7552731666668464  0.1886091666965299  0.5666640000339243
  0.7078836666699786  0.4316916665885770  0.7568119999174598
  0.7135926666645460  0.4737166666348642  0.7289759999660745
  0.7125026666645482  0.9791666666348604  0.2333359999660729
  0.6636118333292700  0.2302758332995865  0.4333359999660757
  0.9406783333337501  0.2608183333778200  0.6526200000293798
  0.0461999999926519  0.3106800000367258  0.7318800000293777
  0.9874973333354546  0.0208333333651396  0.4666640000339228
  0.0374973333354518  0.2708333333651396  0.7666640000339271
  0.9874973333354546  0.5208333333651396  0.9666640000339228
  0.9971560000054325  0.5545900000830173  0.9257860000729252
  0.9990369999975925  0.0423049999272038  0.4163419999248035
  0.9458359999978825  0.3124999999681961  0.6333359999660715
  0.7374973333354546  0.2708333333651396  0.4666640000339228
  0.8458359999978811  0.3124999999681961  0.5333359999660772
  0.7872755000059755  0.0121275000433059  0.2569680000531633
  0.8365288333299148  0.2401808334003022  0.5327380000751987
  0.7874973333354518  0.5208333333651396  0.7666640000339271
  0.7958359999978768  0.5624999999681961  0.7333359999660729
  0.7958359999978768  0.0624999999681961  0.2333359999660729
  0.7469451666626057  0.3136091666329222  0.4333359999660757
  0.8245503333366457  0.3483583332552413  0.4568119999174556
  0.9302593333312146  0.3903833333015285  0.5289759999660717
  0.8708306666687875  0.1041666666984753  0.2666640000339271
  0.9208306666687847  0.3541666666984753  0.5666640000339243
  0.8708306666687875  0.6041666666984753  0.7666640000339271
  0.8814501666662764  0.6388841667438641  0.7257860000729224
  0.8823703333309254  0.1256383332605395  0.2163419999248006
  0.8291693333312153  0.3958333333015247  0.4333359999660757
  0.9041640000021189  0.4375000000318039  0.4666640000339228
  0.0125026666645454  0.4791666666348604  0.5333359999660772
  0.9539421666726398  0.1787941667099773  0.2569680000531633
  0.0030331666688923  0.4060791665802910  0.5333439999197296
  0.9541640000021232  0.6875000000318039  0.7666640000339271
  0.9625026666645482  0.7291666666348604  0.7333359999660729
  0.9625026666645482  0.2291666666348604  0.2333359999660729
  0.9136118333292700  0.4802758332995865  0.4333359999660757
 
  0.00000000E+00  0.00000000E+00  0.00000000E+00
  0.00000000E+00  0.00000000E+00  0.00000000E+00
  0.00000000E+00  0.00000000E+00  0.00000000E+00
  0.00000000E+00  0.00000000E+00  0.00000000E+00
  0.00000000E+00  0.00000000E+00  0.00000000E+00
  0.00000000E+00  0.00000000E+00  0.00000000E+00
  0.00000000E+00  0.00000000E+00  0.00000000E+00
  0.00000000E+00  0.00000000E+00  0.00000000E+00