SYSTEM = Ir_Ru
PREC = Normal
ALGO = Very_Fast
ISMEAR = 1
SIGMA = 0.1
NELMIN = 5
EDIFFG = 1E-05
LREAL = AUTO
ICHARG = 1
IBRION = -1
ISIF = 2
NCORE = 24
KPAR = 4
ISTART=1
NGX =   108
NGY =  108
NGZ =  128
