title                                   
   1.00000000000000     
     5.5019318701595772   -0.0000611890465239   -0.0000000000000000
    -2.7510189263473213    4.7647820698754186    0.0000000000000000
    -0.0000000000000000    0.0000000000000000    4.4564104372728117
   Ir
     8
Direct
  0.3333136098513905  0.6666863901136748  0.2500000000000000
  0.6666863901486096  0.3333136098863251  0.7500000000000000
  0.8333136098513904  0.6666863901136748  0.2500000000000000
  0.8333136098513904  0.1666863901136749  0.2500000000000000
  0.3333136098513905  0.1666863901136749  0.2500000000000000
  0.1666863901486095  0.3333136098863251  0.7500000000000000
  0.6666863901486096  0.8333136098863252  0.7500000000000000
  0.1666863901486095  0.8333136098863252  0.7500000000000000
 
  0.00000000E+00  0.00000000E+00  0.00000000E+00
  0.00000000E+00  0.00000000E+00  0.00000000E+00
  0.00000000E+00  0.00000000E+00  0.00000000E+00
  0.00000000E+00  0.00000000E+00  0.00000000E+00
  0.00000000E+00  0.00000000E+00  0.00000000E+00
  0.00000000E+00  0.00000000E+00  0.00000000E+00
  0.00000000E+00  0.00000000E+00  0.00000000E+00
  0.00000000E+00  0.00000000E+00  0.00000000E+00
