title                                   
   1.00000000000000     
     5.5019318701595772   -0.0000611890465239    0.0000000000000000
    -2.7510189263473213    4.7647820698754186    0.0000000000000000
     0.0000000000000000    0.0000000000000000    4.4564104372728117
   Ir
     8
Direct
  0.3333136098513876  0.6666863901136750  0.2500000000000000
  0.6666863901486124  0.3333136098863250  0.7500000000000000
  0.8333136098513876  0.6666863901136750  0.2500000000000000
  0.8333136098513876  0.1666863901136750  0.2500000000000000
  0.3333136098513876  0.1666863901136750  0.2500000000000000
  0.1666863901486124  0.3333136098863250  0.7500000000000000
  0.6666863901486124  0.8333136098863250  0.7500000000000000
  0.1666863901486124  0.8333136098863250  0.7500000000000000
 
  0.00000000E+00  0.00000000E+00  0.00000000E+00
  0.00000000E+00  0.00000000E+00  0.00000000E+00
  0.00000000E+00  0.00000000E+00  0.00000000E+00
  0.00000000E+00  0.00000000E+00  0.00000000E+00
  0.00000000E+00  0.00000000E+00  0.00000000E+00
  0.00000000E+00  0.00000000E+00  0.00000000E+00
  0.00000000E+00  0.00000000E+00  0.00000000E+00
  0.00000000E+00  0.00000000E+00  0.00000000E+00
