title
1.
-10.989340000 0.000080000 4.404500000
5.494740000 -9.517000000 4.404500000
5.494600000 9.516920000 4.404500000
72 24
Cartesian
-2.747370721 -6.348981939 9.910125000    Ir
-6.872326986 0.795429961 5.505625000    Ir
-9.611887028 0.795402320 5.505625000    Ir
0.000043248 1.590569524 3.303375000    Ir
1.369901974 3.963137680 3.303375000    Ir
4.125026986 -5.553889961 7.707875000    Ir
-0.000070721 -1.590521939 5.505625000    Ir
1.369713014 -3.963110039 5.505625000    Ir
-1.369847028 -3.963137680 5.505625000    Ir
-2.747256752 -3.167890476 7.707875000    Ir
-1.377398026 -0.795322320 7.707875000    Ir
-4.117013014 -0.795349961 7.707875000    Ir
5.494599279 -1.590561939 5.505625000    Ir
-4.124956986 -3.963070039 9.910125000    Ir
4.124822972 -3.963177680 5.505625000    Ir
2.747413248 -3.167930476 7.707875000    Ir
4.117271974 -0.795362320 7.707875000    Ir
1.377656986 -0.795389961 7.707875000    Ir
-2.747440721 3.167978061 5.505625000    Ir
-1.377656986 0.795389961 5.505625000    Ir
-4.117271974 0.795362320 5.505625000    Ir
-5.494626752 1.590609524 7.707875000    Ir
-4.124822972 3.963177680 7.707875000    Ir
-6.864383014 3.963150039 7.707875000    Ir
2.747229279 3.167938061 5.505625000    Ir
4.117013014 0.795349961 5.505625000    Ir
1.377452972 0.795322320 5.505625000    Ir
0.000043248 1.590569524 7.707875000    Ir
1.369901974 3.963137680 7.707875000    Ir
-1.369713014 3.963110039 7.707875000    Ir
-2.747440721 3.167978061 9.910125000    Ir
-1.377656986 0.795389961 9.910125000    Ir
-4.117217028 0.795362320 9.910125000    Ir
5.494713248 1.590529524 7.707875000    Ir
6.864517028 3.963097680 7.707875000    Ir
4.124956986 3.963070039 7.707875000    Ir
5.494599279 -1.590561939 9.910125000    Ir
1.369643014 5.553849961 5.505625000    Ir
-1.369971974 5.553822320 5.505625000    Ir
-2.747326752 6.349069524 7.707875000    Ir
-1.377522972 8.721637680 7.707875000    Ir
1.377656986 -0.795389961 12.112375000    Ir
5.494529279 7.926398061 5.505625000    Ir
-4.125026986 5.553889961 9.910125000    Ir
4.124698026 5.553782320 5.505625000    Ir
2.747343248 6.349029524 7.707875000    Ir
-1.377398026 -0.795322320 3.303375000    Ir
-4.117013014 -0.795349961 3.303375000    Ir
-0.000070721 -1.590521939 9.910125000    Ir
1.369713014 -3.963110039 9.910125000    Ir
-1.369901974 -3.963137680 9.910125000    Ir
8.242083248 -3.167970476 7.707875000    Ir
-1.377398026 -0.795322320 12.112375000    Ir
6.872326986 -0.795429961 7.707875000    Ir
2.747229279 3.167938061 9.910125000    Ir
4.117013014 0.795349961 9.910125000    Ir
1.377398026 0.795322320 9.910125000    Ir
0.000043248 1.590569524 12.112375000    Ir
-4.124698026 -5.553782320 7.707875000    Ir
-6.864313014 -5.553809961 7.707875000    Ir
2.747299279 -6.349021939 5.505625000    Ir
4.117083014 -8.721610039 5.505625000    Ir
6.872122972 0.795282320 9.910125000    Ir
0.000113248 -7.926390476 7.707875000    Ir
1.369971974 -5.553822320 7.707875000    Ir
-1.369643014 -5.553849961 7.707875000    Ir
-5.494740721 -1.590481939 5.505625000    Ir
-4.124956986 -3.963070039 5.505625000    Ir
-1.369917028 5.553822320 9.910125000    Ir
2.747413248 -3.167930476 3.303375000    Ir
-6.872068026 -0.795282320 7.707875000    Ir
1.377656986 -0.795389961 3.303375000    Ir
5.470127914 -6.330483689 5.477348110    Ru
2.747433227 1.586076553 3.303375000    Ru
-2.747433227 -1.586076553 5.505625000    Ru
0.000133227 -3.172383447 7.707875000    Ru
2.747236773 -1.586116553 5.505625000    Ru
5.494803227 -3.172423447 7.707875000    Ru
-5.494803227 3.172423447 5.505625000    Ru
-2.747236773 1.586116553 7.707875000    Ru
-0.000133227 3.172383447 5.505625000    Ru
2.747433227 1.586076553 7.707875000    Ru
5.494536773 3.172343447 5.505625000    Ru
8.242103227 1.586036553 7.707875000    Ru
2.747236773 -1.586116553 9.910125000    Ru
0.000063227 6.344576553 7.707875000    Ru
2.747166773 7.930843447 5.505625000    Ru
0.000133227 -3.172383447 3.303375000    Ru
-2.747433227 -1.586076553 9.910125000    Ru
-5.494606773 6.344616553 7.707875000    Ru
-0.000133227 3.172383447 9.910125000    Ru
-2.747166773 -7.930843447 7.707875000    Ru
-0.000063227 -6.344576553 5.505625000    Ru
-2.747236773 1.586116553 3.303375000    Ru
-8.242103227 -1.586036553 5.505625000    Ru
-5.494536773 -3.172343447 7.707875000    Ru
