title                                   
   1.00000000000000     
     2.7401469520097437   -4.7445460803178614   -0.0002027797984737
     5.4782788870083197   -0.0011634277768672   -0.0002367258059849
    -0.0007530585220345    0.0003121852686907   17.3564067536497255
   Ir   Ru
    12    20
Direct
  0.3341142128485635  0.8333366434744962  0.0612614437988557
  0.3341610042255752  0.8333739899414859  0.3125671582812225
  0.3334277989282968  0.8333658211637377  0.5643544322209681
  0.8333586592826195  0.8331055538072422  0.5644483046883954
  0.8332865601990533  0.3335192219381377  0.3119182026709665
  0.8334660554197676  0.3334563564230393  0.5642016831617147
  0.8332578066160737  0.3331559274546353  0.8126676104718846
  0.1663008600631620  0.1675439485594959  0.1860970393231792
  0.6659975230680591  0.1667101867532464  0.4368826511181402
  0.1661061042864876  0.6661814635295151  0.1863889454799558
  0.1664325703732451  0.6659344457625765  0.4373235000140813
  0.1663456975285827  0.6665379706110286  0.9367445354286840
  0.3337538404337584  0.8336346988802386  0.8121420583092881
  0.8319735626988581  0.8340846690066864  0.0616997661725915
  0.8324713868583744  0.8334975020358999  0.3116707652584034
  0.8326425398150314  0.8336176272182754  0.8125553343218345
  0.8324888469594478  0.3336456748604781  0.0615831263445147
  0.1672749204396030  0.1674820084899607  0.4375786848962612
  0.1678331911776124  0.1666302911936240  0.6890448492780422
  0.1668576393689456  0.1671434318618244  0.9369064404576291
  0.6664925683595677  0.1665738833968530  0.1860762294014027
  0.6653820422369839  0.1665986318355239  0.6891582866386629
  0.6664322382525871  0.1663249896572647  0.9375143395768213
  0.1670979591690751  0.6658683011478984  0.6891885273670987
  0.3344298969144132  0.3322369081311050  0.0614083944717417
  0.3337113064540701  0.3325986178089629  0.3121905588802830
  0.3332109627495727  0.3332067280108597  0.5644951492520137
  0.3337860163588062  0.3325236503975951  0.8123447329622490
  0.6673859453094585  0.6665970203611848  0.1860858518734014
  0.6672590258503919  0.6670003180197966  0.4370104343239223
  0.6662645995217766  0.6674848733628524  0.6893077745509543
  0.6669966582321795  0.6670286449044807  0.9371831890048373
 
  0.00000000E+00  0.00000000E+00  0.00000000E+00
  0.00000000E+00  0.00000000E+00  0.00000000E+00
  0.00000000E+00  0.00000000E+00  0.00000000E+00
  0.00000000E+00  0.00000000E+00  0.00000000E+00
  0.00000000E+00  0.00000000E+00  0.00000000E+00
  0.00000000E+00  0.00000000E+00  0.00000000E+00
  0.00000000E+00  0.00000000E+00  0.00000000E+00
  0.00000000E+00  0.00000000E+00  0.00000000E+00
  0.00000000E+00  0.00000000E+00  0.00000000E+00
  0.00000000E+00  0.00000000E+00  0.00000000E+00
  0.00000000E+00  0.00000000E+00  0.00000000E+00
  0.00000000E+00  0.00000000E+00  0.00000000E+00
  0.00000000E+00  0.00000000E+00  0.00000000E+00
  0.00000000E+00  0.00000000E+00  0.00000000E+00
  0.00000000E+00  0.00000000E+00  0.00000000E+00
  0.00000000E+00  0.00000000E+00  0.00000000E+00
  0.00000000E+00  0.00000000E+00  0.00000000E+00
  0.00000000E+00  0.00000000E+00  0.00000000E+00
  0.00000000E+00  0.00000000E+00  0.00000000E+00
  0.00000000E+00  0.00000000E+00  0.00000000E+00
  0.00000000E+00  0.00000000E+00  0.00000000E+00
  0.00000000E+00  0.00000000E+00  0.00000000E+00
  0.00000000E+00  0.00000000E+00  0.00000000E+00
  0.00000000E+00  0.00000000E+00  0.00000000E+00
  0.00000000E+00  0.00000000E+00  0.00000000E+00
  0.00000000E+00  0.00000000E+00  0.00000000E+00
  0.00000000E+00  0.00000000E+00  0.00000000E+00
  0.00000000E+00  0.00000000E+00  0.00000000E+00
  0.00000000E+00  0.00000000E+00  0.00000000E+00
  0.00000000E+00  0.00000000E+00  0.00000000E+00
  0.00000000E+00  0.00000000E+00  0.00000000E+00
  0.00000000E+00  0.00000000E+00  0.00000000E+00
