title                                   
   1.00000000000000     
    -3.8200044328291534    3.8200044328291534   -3.8202676092796835
     3.8200044328291534   -3.8200044328291534   -3.8202676092796835
    -7.6423600198025969   -7.6423600198025969    0.0000000000000000
   Ir   Ru
     4    28
Direct
  0.2506049789771838  0.7493950210228165  0.7500000000000000
  0.7493950210228165  0.2506049789771838  0.7500000000000000
  0.0000000000000000  0.0000000000000000  0.4999894492719199
 -0.0000000000000000  0.0000000000000000  0.0000105507280801
  0.5000000000000000  0.5000000000000000  0.4999566535537625
  0.2506860391029215  0.7493139608970786  0.2500000000000000
  0.7493139608970786  0.2506860391029215  0.2500000000000000
  0.5000000000000000  0.5000000000000000  0.0000433464462376
  0.1264465276699674  0.3753031779826499  0.6244108550767822
  0.6246968220173500  0.8735534723300327  0.6244108550767822
  0.3765539566150515  0.1253495056438972  0.3744072758461485
  0.1253495056438972  0.3765539566150515  0.1255927241538515
  0.6234460433849488  0.8746504943561030  0.1255927241538515
  0.3753031779826499  0.1264465276699674  0.8755891449232178
  0.8746504943561030  0.6234460433849488  0.3744072758461485
  0.8735534723300327  0.6246968220173500  0.8755891449232178
  0.8735534723300327  0.6246968220173500  0.6244108550767822
  0.3753031779826499  0.1264465276699674  0.6244108550767822
  0.1253495056438972  0.3765539566150515  0.3744072758461485
  0.8746504943561030  0.6234460433849488  0.1255927241538515
  0.3765539566150515  0.1253495056438972  0.1255927241538515
  0.1264465276699674  0.3753031779826499  0.8755891449232178
  0.6234460433849488  0.8746504943561030  0.3744072758461485
  0.6246968220173500  0.8735534723300327  0.8755891449232178
  0.2508463003594844  0.7491536996405157  0.4991453374213622
  0.7491536996405157  0.2508463003594844  0.4991453374213622
  0.5000000000000000  0.5000000000000000  0.2500000000000000
  0.2508463003594844  0.7491536996405157  0.0008546625786378
  0.7491536996405157  0.2508463003594844  0.0008546625786378
  0.5000000000000000  0.5000000000000000  0.7500000000000000
  0.0000000000000000  0.0000000000000000  0.2500000000000000
  0.0000000000000000  0.0000000000000000  0.7500000000000000
 
  0.00000000E+00  0.00000000E+00  0.00000000E+00
  0.00000000E+00  0.00000000E+00  0.00000000E+00
  0.00000000E+00  0.00000000E+00  0.00000000E+00
  0.00000000E+00  0.00000000E+00  0.00000000E+00
  0.00000000E+00  0.00000000E+00  0.00000000E+00
  0.00000000E+00  0.00000000E+00  0.00000000E+00
  0.00000000E+00  0.00000000E+00  0.00000000E+00
  0.00000000E+00  0.00000000E+00  0.00000000E+00
  0.00000000E+00  0.00000000E+00  0.00000000E+00
  0.00000000E+00  0.00000000E+00  0.00000000E+00
  0.00000000E+00  0.00000000E+00  0.00000000E+00
  0.00000000E+00  0.00000000E+00  0.00000000E+00
  0.00000000E+00  0.00000000E+00  0.00000000E+00
  0.00000000E+00  0.00000000E+00  0.00000000E+00
  0.00000000E+00  0.00000000E+00  0.00000000E+00
  0.00000000E+00  0.00000000E+00  0.00000000E+00
  0.00000000E+00  0.00000000E+00  0.00000000E+00
  0.00000000E+00  0.00000000E+00  0.00000000E+00
  0.00000000E+00  0.00000000E+00  0.00000000E+00
  0.00000000E+00  0.00000000E+00  0.00000000E+00
  0.00000000E+00  0.00000000E+00  0.00000000E+00
  0.00000000E+00  0.00000000E+00  0.00000000E+00
  0.00000000E+00  0.00000000E+00  0.00000000E+00
  0.00000000E+00  0.00000000E+00  0.00000000E+00
  0.00000000E+00  0.00000000E+00  0.00000000E+00
  0.00000000E+00  0.00000000E+00  0.00000000E+00
  0.00000000E+00  0.00000000E+00  0.00000000E+00
  0.00000000E+00  0.00000000E+00  0.00000000E+00
  0.00000000E+00  0.00000000E+00  0.00000000E+00
  0.00000000E+00  0.00000000E+00  0.00000000E+00
  0.00000000E+00  0.00000000E+00  0.00000000E+00
  0.00000000E+00  0.00000000E+00  0.00000000E+00
