title                                   
   1.00000000000000     
    -3.8611167924195873   -7.7220218080322161    7.7220485632779958
    -3.8611167924195873    7.7220218080322161   -7.7220485632779958
     0.0000000000000000   -7.7275478008365921   -7.7275745986657984
   Ir   Ru
    52    12
Direct
  0.0001236799226470 -0.0001236799226470  0.4997407046201285
  0.3754069657905708  0.6245930342094291  0.2502110443046549
  0.6248507991128157  0.3751492008871843  0.2502137082870795
  0.8746384737238176  0.1253615262761823  0.2498515354746184
  0.1255442771535489  0.8744557228464512  0.5004317775901573
  0.3749270593995704  0.6250729406004294  0.5013918366963537
  0.2495541834228308  0.7504458165771690  0.2498678126216557
  0.1250940064596556  0.8749059935403442 -0.0004273720894719
  0.6250209830096999  0.3749790169903003  0.5012523275194115
  0.5001296257741482  0.4998703742258517  0.2497983712521321
  0.0004558681670948 -0.0004558681670948  0.2489961827544575
  0.3749348512266407  0.6250651487733594 -0.0013548715295748
  0.2499560162157337  0.7500439837842662  0.7501124604037381
  0.8745248070395054  0.1254751929604946  0.5012867716261813
  0.7498421681794946  0.2501578318205055  0.2498748991831573
  0.6250195335543856  0.3749804664456148 -0.0012175049825431
  0.5000306495244722  0.4999693504755278  0.7501978549462840
  0.0000871577455552 -0.0000871577455552  0.7510085761318748
  0.8749540221974067  0.1250459778025933 -0.0013071039608754
  0.7499263434533384  0.2500736565466615  0.7501030950465506
  0.9373105696930023  0.5623975659056275  0.6255501694045076
  0.1881552946867085  0.3136471974848527  0.6259353291453678
  0.0622205585344271  0.4382761261127459  0.3761809763369146
  0.9385989463624346  0.5632012400577401  0.1240954990815751
  0.4376024340943725  0.0626894303069978  0.6255501694045076
  0.3126200386431053  0.1873531389313358  0.3752016011363186
  0.8126468610686641  0.6873799613568943  0.3752016011363186
  0.1878245474617582  0.3119637985835439  0.1236163355447061
  0.0623379639556269  0.4375148288660623  0.8747614565080910
  0.6863528025151475  0.8118447053132914  0.6259353291453678
  0.5617238738872542  0.9377794414655730  0.3761809763369146
  0.4367987599422598  0.0614010536375654  0.1240954990815751
  0.3126510731362332  0.1873609706182404  0.8746528627089014
  0.8126390293817596  0.6873489268637668  0.8746528627089014
  0.6880362014164559  0.8121754525382416  0.1236163355447061
  0.5624851711339373  0.9376620360443731  0.8747614565080910
  0.8119738388707934  0.6862771433307507  0.6259577689138773
  0.0625343077038386  0.4376839410443419  0.6255285841798952
  0.9385633152104844  0.5631518248996694  0.3757209737407422
  0.8133854438745568  0.6885851965129876  0.1240526123890593
  0.3137228566692492  0.1880261611292064  0.6259577689138773
  0.1885168103584904  0.3131369618955379  0.3756607389075200
  0.6868630381044620  0.8114831896415097  0.3756607389075200
  0.0621928428519513  0.4382157090151995  0.1236633776007597
  0.9375146320915031  0.5625638602877998  0.8747238557310785
  0.5623160589556581  0.9374656922961614  0.6255285841798952
  0.4368481751003305  0.0614366847895154  0.3757209737407422
  0.3114148034870124  0.1866145561254431  0.1240526123890593
  0.1874873460208869  0.3125520535890815  0.8746868537810178
  0.6874479464109184  0.8125126539791133  0.8746868537810178
  0.5617842909848008  0.9378071571480486  0.1236633776007597
  0.4374361397122001  0.0624853679084969  0.8747238557310785
  0.1251242210258394  0.8748757789741606  0.7501707908627006
  0.3751041760858924  0.6248958239141075  0.7497521333938817
  0.2495538347398309  0.7504461652601688  0.4995312354721881
  0.1250957332756232  0.8749042667243768  0.2498660888368452
  0.6248201304415650  0.3751798695584349  0.7497715788036380
  0.4997984542934143  0.5002015457065857  0.5000169857185875
  0.2499628210087009  0.7500371789912994  0.0003558377624424
  0.8749591770562594  0.1250408229437407  0.7501675293410067
  0.7505239668908681  0.2494760331091318  0.5000241507561501
  0.4998000311896499  0.5001999688103500 -0.0000307929533065
  0.0001218510732088 -0.0001218510732088  0.0004566026899197
  0.7501081595259320  0.2498918404740680 -0.0000922368006882
 
  0.00000000E+00  0.00000000E+00  0.00000000E+00
  0.00000000E+00  0.00000000E+00  0.00000000E+00
  0.00000000E+00  0.00000000E+00  0.00000000E+00
  0.00000000E+00  0.00000000E+00  0.00000000E+00
  0.00000000E+00  0.00000000E+00  0.00000000E+00
  0.00000000E+00  0.00000000E+00  0.00000000E+00
  0.00000000E+00  0.00000000E+00  0.00000000E+00
  0.00000000E+00  0.00000000E+00  0.00000000E+00
  0.00000000E+00  0.00000000E+00  0.00000000E+00
  0.00000000E+00  0.00000000E+00  0.00000000E+00
  0.00000000E+00  0.00000000E+00  0.00000000E+00
  0.00000000E+00  0.00000000E+00  0.00000000E+00
  0.00000000E+00  0.00000000E+00  0.00000000E+00
  0.00000000E+00  0.00000000E+00  0.00000000E+00
  0.00000000E+00  0.00000000E+00  0.00000000E+00
  0.00000000E+00  0.00000000E+00  0.00000000E+00
  0.00000000E+00  0.00000000E+00  0.00000000E+00
  0.00000000E+00  0.00000000E+00  0.00000000E+00
  0.00000000E+00  0.00000000E+00  0.00000000E+00
  0.00000000E+00  0.00000000E+00  0.00000000E+00
  0.00000000E+00  0.00000000E+00  0.00000000E+00
  0.00000000E+00  0.00000000E+00  0.00000000E+00
  0.00000000E+00  0.00000000E+00  0.00000000E+00
  0.00000000E+00  0.00000000E+00  0.00000000E+00
  0.00000000E+00  0.00000000E+00  0.00000000E+00
  0.00000000E+00  0.00000000E+00  0.00000000E+00
  0.00000000E+00  0.00000000E+00  0.00000000E+00
  0.00000000E+00  0.00000000E+00  0.00000000E+00
  0.00000000E+00  0.00000000E+00  0.00000000E+00
  0.00000000E+00  0.00000000E+00  0.00000000E+00
  0.00000000E+00  0.00000000E+00  0.00000000E+00
  0.00000000E+00  0.00000000E+00  0.00000000E+00
  0.00000000E+00  0.00000000E+00  0.00000000E+00
  0.00000000E+00  0.00000000E+00  0.00000000E+00
  0.00000000E+00  0.00000000E+00  0.00000000E+00
  0.00000000E+00  0.00000000E+00  0.00000000E+00
  0.00000000E+00  0.00000000E+00  0.00000000E+00
  0.00000000E+00  0.00000000E+00  0.00000000E+00
  0.00000000E+00  0.00000000E+00  0.00000000E+00
  0.00000000E+00  0.00000000E+00  0.00000000E+00
  0.00000000E+00  0.00000000E+00  0.00000000E+00
  0.00000000E+00  0.00000000E+00  0.00000000E+00
  0.00000000E+00  0.00000000E+00  0.00000000E+00
  0.00000000E+00  0.00000000E+00  0.00000000E+00
  0.00000000E+00  0.00000000E+00  0.00000000E+00
  0.00000000E+00  0.00000000E+00  0.00000000E+00
  0.00000000E+00  0.00000000E+00  0.00000000E+00
  0.00000000E+00  0.00000000E+00  0.00000000E+00
  0.00000000E+00  0.00000000E+00  0.00000000E+00
  0.00000000E+00  0.00000000E+00  0.00000000E+00
  0.00000000E+00  0.00000000E+00  0.00000000E+00
  0.00000000E+00  0.00000000E+00  0.00000000E+00
  0.00000000E+00  0.00000000E+00  0.00000000E+00
  0.00000000E+00  0.00000000E+00  0.00000000E+00
  0.00000000E+00  0.00000000E+00  0.00000000E+00
  0.00000000E+00  0.00000000E+00  0.00000000E+00
  0.00000000E+00  0.00000000E+00  0.00000000E+00
  0.00000000E+00  0.00000000E+00  0.00000000E+00
  0.00000000E+00  0.00000000E+00  0.00000000E+00
  0.00000000E+00  0.00000000E+00  0.00000000E+00
  0.00000000E+00  0.00000000E+00  0.00000000E+00
  0.00000000E+00  0.00000000E+00  0.00000000E+00
  0.00000000E+00  0.00000000E+00  0.00000000E+00
  0.00000000E+00  0.00000000E+00  0.00000000E+00
