title                                   
   1.00000000000000     
     7.6435599999999999   -0.0042400000000000   -7.5998000000000001
    -7.6039599999999998   -0.0224400000000000   -7.6399200000000000
    -0.0268000000000000    9.5320800000000006    5.6973700000000003
   Ru
    80
Direct
  0.1500375000433181  0.4006274999909039  0.3997500000104921
  0.1500375000433181  0.1506274999909039  0.3997500000104921
  0.1500375000433181  0.9006274999909039  0.3997500000104921
  0.1537465000420397  0.6506289999763553  0.3997440000419274
  0.3500375000433209  0.6006274999909067  0.5997500000104878
  0.3000375000433237  0.5506274999909095  0.7997500000104907
  0.2500375000433195  0.5006274999909053  0.9997500000104864
  0.2000375000433223  0.4506274999909081  0.1997500000104893
  0.4000375000433252  0.4006274999909039  0.3997500000104921
  0.3500375000433209  0.3506274999909067  0.5997500000104878
  0.3000375000433237  0.3006274999909095  0.7997500000104907
  0.2500375000433195  0.2506274999909053  0.9997500000104864
  0.2000375000433223  0.2006274999909081  0.1997500000104893
  0.4000375000433252  0.1506274999909039  0.3997500000104921
  0.3500375000433209  0.1006274999909067  0.5997500000104878
  0.3000354999999786  0.0506280000131341  0.7997480000000294
  0.2500375000433195  0.0006274999909053  0.9997500000104864
  0.2000375000433223  0.9506274999909081  0.1997500000104893
  0.4000375000433252  0.9006274999909039  0.3997500000104921
  0.3500375000433209  0.8506274999909067  0.5997500000104878
  0.3000375000433237  0.8006274999909095  0.7997500000104907
  0.2500375000433195  0.7506274999909053  0.9997500000104864
  0.2000375000433223  0.7006274999909081  0.1997500000104893
  0.4000375000433181  0.6506274999909039  0.3997500000104921
  0.6000375000433209  0.6006274999909067  0.5997500000104878
  0.5500375000433237  0.5506274999909095  0.7997500000104907
  0.5000375000433195  0.5006274999909053  0.9997500000104864
  0.4500375000433223  0.4506274999909081  0.1997500000104893
  0.6500375000433181  0.4006274999909039  0.3997500000104921
  0.6000375000433209  0.3506274999909067  0.5997500000104878
  0.5500375000433237  0.3006274999909095  0.7997500000104907
  0.5000375000433195  0.2506274999909053  0.9997500000104864
  0.4500375000433223  0.2006274999909081  0.1997500000104893
  0.6500375000433252  0.1506274999909039  0.3997500000104921
  0.6000375000433209  0.1006274999909067  0.5997500000104878
  0.5500375000433237  0.0506274999909095  0.7997500000104907
  0.5000375000433195  0.0006274999909053  0.9997500000104864
  0.4500375000433223  0.9506274999909081  0.1997500000104893
  0.6500375000433181  0.9006274999909039  0.3997500000104921
  0.6000375000433209  0.8506274999909067  0.5997500000104878
  0.5500375000433237  0.8006274999909095  0.7997500000104907
  0.5000375000433195  0.7506274999909053  0.9997500000104864
  0.4500375000433223  0.7006274999909081  0.1997500000104893
  0.6500375000433252  0.6506274999909039  0.3997500000104921
  0.8500354999999828  0.6006280000131312  0.5997480000000337
  0.8000354999999786  0.5506280000131341  0.7997480000000294
  0.7500375000433195  0.5006274999909053  0.9997500000104864
  0.7000375000433223  0.4506274999909081  0.1997500000104893
  0.9000354999999800  0.4006280000131284  0.3997480000000309
  0.8500354999999828  0.3506280000131312  0.5997480000000337
  0.8000375000433237  0.3006274999909095  0.7997500000104907
  0.7500375000433195  0.2506274999909053  0.9997500000104864
  0.7000375000433223  0.2006274999909081  0.1997500000104893
  0.9000354999999800  0.1506280000131284  0.3997480000000309
  0.8500375000433209  0.1006274999909067  0.5997500000104878
  0.8000375000433237  0.0506274999909095  0.7997500000104907
  0.7500375000433195  0.0006274999909053  0.9997500000104864
  0.7000375000433223  0.9506274999909081  0.1997500000104893
  0.9000375000433181  0.9006274999909039  0.3997500000104921
  0.8500375000433209  0.8506274999909067  0.5997500000104878
  0.8000375000433237  0.8006274999909095  0.7997500000104907
  0.7500375000433195  0.7506274999909053  0.9997500000104864
  0.7000375000433223  0.7006274999909081  0.1997500000104893
  0.9000375000433181  0.6506274999909039  0.3997500000104921
  0.1000354999999828  0.6006280000131312  0.5997480000000337
  0.0500354999999786  0.5506280000131341  0.7997480000000294
  0.0000375000433195  0.5006274999909053  0.9997500000104864
  0.9500375000433223  0.4506274999909081  0.1997500000104893
  0.1000354999999828  0.3506280000131312  0.5997480000000337
  0.0500354999999786  0.3006280000131341  0.7997480000000294
  0.0000375000433195  0.2506274999909053  0.9997500000104864
  0.9500375000433223  0.2006274999909081  0.1997500000104893
  0.1000354999999828  0.1006280000131312  0.5997480000000337
  0.0500354999999786  0.0506280000131341  0.7997480000000294
  0.0000354999999814  0.0006280000131298  0.9997480000000323
  0.9500375000433223  0.9506274999909081  0.1997500000104893
  0.1000375000433209  0.8506274999909067  0.5997500000104878
  0.0500375000433237  0.8006274999909095  0.7997500000104907
  0.0000375000433195  0.7506274999909053  0.9997500000104864
  0.9500375000433223  0.7006274999909081  0.1997500000104893
 
  0.00000000E+00  0.00000000E+00  0.00000000E+00
  0.00000000E+00  0.00000000E+00  0.00000000E+00
  0.00000000E+00  0.00000000E+00  0.00000000E+00
  0.00000000E+00  0.00000000E+00  0.00000000E+00
  0.00000000E+00  0.00000000E+00  0.00000000E+00
  0.00000000E+00  0.00000000E+00  0.00000000E+00
  0.00000000E+00  0.00000000E+00  0.00000000E+00
  0.00000000E+00  0.00000000E+00  0.00000000E+00
  0.00000000E+00  0.00000000E+00  0.00000000E+00
  0.00000000E+00  0.00000000E+00  0.00000000E+00
  0.00000000E+00  0.00000000E+00  0.00000000E+00
  0.00000000E+00  0.00000000E+00  0.00000000E+00
  0.00000000E+00  0.00000000E+00  0.00000000E+00
  0.00000000E+00  0.00000000E+00  0.00000000E+00
  0.00000000E+00  0.00000000E+00  0.00000000E+00
  0.00000000E+00  0.00000000E+00  0.00000000E+00
  0.00000000E+00  0.00000000E+00  0.00000000E+00
  0.00000000E+00  0.00000000E+00  0.00000000E+00
  0.00000000E+00  0.00000000E+00  0.00000000E+00
  0.00000000E+00  0.00000000E+00  0.00000000E+00
  0.00000000E+00  0.00000000E+00  0.00000000E+00
  0.00000000E+00  0.00000000E+00  0.00000000E+00
  0.00000000E+00  0.00000000E+00  0.00000000E+00
  0.00000000E+00  0.00000000E+00  0.00000000E+00
  0.00000000E+00  0.00000000E+00  0.00000000E+00
  0.00000000E+00  0.00000000E+00  0.00000000E+00
  0.00000000E+00  0.00000000E+00  0.00000000E+00
  0.00000000E+00  0.00000000E+00  0.00000000E+00
  0.00000000E+00  0.00000000E+00  0.00000000E+00
  0.00000000E+00  0.00000000E+00  0.00000000E+00
  0.00000000E+00  0.00000000E+00  0.00000000E+00
  0.00000000E+00  0.00000000E+00  0.00000000E+00
  0.00000000E+00  0.00000000E+00  0.00000000E+00
  0.00000000E+00  0.00000000E+00  0.00000000E+00
  0.00000000E+00  0.00000000E+00  0.00000000E+00
  0.00000000E+00  0.00000000E+00  0.00000000E+00
  0.00000000E+00  0.00000000E+00  0.00000000E+00
  0.00000000E+00  0.00000000E+00  0.00000000E+00
  0.00000000E+00  0.00000000E+00  0.00000000E+00
  0.00000000E+00  0.00000000E+00  0.00000000E+00
  0.00000000E+00  0.00000000E+00  0.00000000E+00
  0.00000000E+00  0.00000000E+00  0.00000000E+00
  0.00000000E+00  0.00000000E+00  0.00000000E+00
  0.00000000E+00  0.00000000E+00  0.00000000E+00
  0.00000000E+00  0.00000000E+00  0.00000000E+00
  0.00000000E+00  0.00000000E+00  0.00000000E+00
  0.00000000E+00  0.00000000E+00  0.00000000E+00
  0.00000000E+00  0.00000000E+00  0.00000000E+00
  0.00000000E+00  0.00000000E+00  0.00000000E+00
  0.00000000E+00  0.00000000E+00  0.00000000E+00
  0.00000000E+00  0.00000000E+00  0.00000000E+00
  0.00000000E+00  0.00000000E+00  0.00000000E+00
  0.00000000E+00  0.00000000E+00  0.00000000E+00
  0.00000000E+00  0.00000000E+00  0.00000000E+00
  0.00000000E+00  0.00000000E+00  0.00000000E+00
  0.00000000E+00  0.00000000E+00  0.00000000E+00
  0.00000000E+00  0.00000000E+00  0.00000000E+00
  0.00000000E+00  0.00000000E+00  0.00000000E+00
  0.00000000E+00  0.00000000E+00  0.00000000E+00
  0.00000000E+00  0.00000000E+00  0.00000000E+00
  0.00000000E+00  0.00000000E+00  0.00000000E+00
  0.00000000E+00  0.00000000E+00  0.00000000E+00
  0.00000000E+00  0.00000000E+00  0.00000000E+00
  0.00000000E+00  0.00000000E+00  0.00000000E+00
  0.00000000E+00  0.00000000E+00  0.00000000E+00
  0.00000000E+00  0.00000000E+00  0.00000000E+00
  0.00000000E+00  0.00000000E+00  0.00000000E+00
  0.00000000E+00  0.00000000E+00  0.00000000E+00
  0.00000000E+00  0.00000000E+00  0.00000000E+00
  0.00000000E+00  0.00000000E+00  0.00000000E+00
  0.00000000E+00  0.00000000E+00  0.00000000E+00
  0.00000000E+00  0.00000000E+00  0.00000000E+00
  0.00000000E+00  0.00000000E+00  0.00000000E+00
  0.00000000E+00  0.00000000E+00  0.00000000E+00
  0.00000000E+00  0.00000000E+00  0.00000000E+00
  0.00000000E+00  0.00000000E+00  0.00000000E+00
  0.00000000E+00  0.00000000E+00  0.00000000E+00
  0.00000000E+00  0.00000000E+00  0.00000000E+00
  0.00000000E+00  0.00000000E+00  0.00000000E+00
  0.00000000E+00  0.00000000E+00  0.00000000E+00
