title
1.
7.643560000 -0.004240000 -7.599800000
-7.603960000 -0.022440000 -7.639920000
-0.026800000 9.532080000 5.697370000
80
Cartesian
-1.910248151 3.800822740 -1.923493385    Ru
-0.009258151 3.806432740 -0.013513385    Ru
-5.712228151 3.789602740 -5.743453385    Ru
-3.782899432 3.795139788 -3.861706687    Ru
-1.907688151 5.701902740 -3.831963385    Ru
-1.915028151 7.609652740 -1.930503385    Ru
-1.922368151 9.517402740 -0.029043385    Ru
-1.902908151 1.893072740 -3.824953385    Ru
0.000641849 3.799762740 -3.823443385    Ru
-0.006698151 5.707512740 -1.921983385    Ru
-0.014038151 7.615262740 -0.020523385    Ru
-0.021378151 9.523012740 1.880936615    Ru
-0.001918151 1.898682740 -1.914973385    Ru
1.901631849 3.805372740 -1.913463385    Ru
1.894291849 5.713122740 -0.012003385    Ru
1.886932813 7.620853673 1.889456600    Ru
1.879611849 9.528622740 3.790916615    Ru
-5.704888151 1.881852740 -7.644913385    Ru
-3.801338151 3.788542740 -7.643403385    Ru
-3.808678151 5.696292740 -5.741943385    Ru
-3.816018151 7.604042740 -3.840483385    Ru
-3.823358151 9.511792740 -1.939023385    Ru
-3.803898151 1.887462740 -5.734933385    Ru
-1.900348151 3.794152740 -5.733423385    Ru
0.003201849 5.700842740 -5.731913385    Ru
-0.004138151 7.608592740 -3.830453385    Ru
-0.011478151 9.516342740 -1.928993385    Ru
0.007981849 1.892012740 -5.724903385    Ru
1.911531849 3.798702740 -5.723393385    Ru
1.904191849 5.706452740 -3.821933385    Ru
1.896851849 7.614202740 -1.920473385    Ru
1.889511849 9.521952740 -0.019013385    Ru
1.908971849 1.897622740 -3.814923385    Ru
3.812521849 3.804312740 -3.813413385    Ru
3.805181849 5.712062740 -1.911953385    Ru
3.797841849 7.619812740 -0.010493385    Ru
3.790501849 9.527562740 1.890966615    Ru
-3.793998151 1.880792740 -9.544863385    Ru
-1.890448151 3.787482740 -9.543353385    Ru
-1.897788151 5.695232740 -7.641893385    Ru
-1.905128151 7.602982740 -5.740433385    Ru
-1.912468151 9.510732740 -3.838973385    Ru
-1.893008151 1.886402740 -7.634883385    Ru
0.010541849 3.793092740 -7.633373385    Ru
1.914072813 5.699763673 -7.631863400    Ru
1.906732813 7.607513673 -5.730403400    Ru
1.899411849 9.515282740 -3.828943385    Ru
1.918871849 1.890952740 -7.624853385    Ru
3.822402813 3.797623673 -7.623343400    Ru
3.815062813 5.705373673 -5.721883400    Ru
3.807741849 7.613142740 -3.820423385    Ru
3.800401849 9.520892740 -1.918963385    Ru
3.819861849 1.896562740 -5.714873385    Ru
5.723392813 3.803233673 -5.713363400    Ru
5.716071849 5.711002740 -3.811903385    Ru
5.708731849 7.618752740 -1.910443385    Ru
5.701391849 9.526502740 -0.008983385    Ru
-1.883108151 1.879732740 -11.444813385    Ru
0.020441849 3.786422740 -11.443303385    Ru
0.013101849 5.694172740 -9.541843385    Ru
0.005761849 7.601922740 -7.640383385    Ru
-0.001578151 9.509672740 -5.738923385    Ru
0.017881849 1.885342740 -9.534833385    Ru
1.921431849 3.792032740 -9.533323385    Ru
-3.818597187 5.702943673 -1.932013400    Ru
-3.825937187 7.610693673 -0.030553400    Ru
3.810301849 9.514222740 -5.728893385    Ru
3.829761849 1.889892740 -9.524803385    Ru
-1.917607187 5.708553673 -0.022033400    Ru
-1.924947187 7.616303673 1.879426600    Ru
5.711291849 9.519832740 -3.818913385    Ru
5.730751849 1.895502740 -7.614823385    Ru
-0.016617187 5.714163673 1.887946600    Ru
-0.023957187 7.621913673 3.789406600    Ru
7.612262813 9.525423673 -1.908933400    Ru
0.027781849 1.878672740 -13.344763385    Ru
-5.719568151 5.697352740 -3.841993385    Ru
-5.726908151 7.605102740 -1.940533385    Ru
1.909311849 9.508612740 -7.638873385    Ru
1.928771849 1.884282740 -11.434783385    Ru
